S = 6;
L = [ 2, 5, 5, 5, 5, 2 ];
maxC = 1814;
maxL = 5;
valid = array2d(1..6,1..1814, [ true, true, true, true, true, true, true, true, true, true, true, true, true, true, true, true, true, true, true, true, true, true, true, true, true, true, true, true, true, true, true, true, true, true, true, true, true, true, true, true, true, true, true, true, true, true, true, true, true, true, true, true, true, true, true, true, true, true, true, true, true, true, true, true, true, true, true, true, true, true, true, true, true, true, true, true, true, true, true, true, true, true, true, true, true, true, true, true, true, true, true, false, false, false, false, false, false, false, false, false, false, false, false, false, false, false, false, false, false, false, false, false, false, false, false, false, false, false, false, false, false, false, false, false, false, false, false, false, false, false, false, false, false, false, false, false, false, false, false, false, false, false, false, false, false, false, false, false, false, false, false, false, false, false, false, false, false, false, false, false, false, false, false, false, false, false, false, false, false, false, false, false, false, false, false, false, false, false, false, false, false, false, false, false, false, false, false, false, false, false, false, false, false, false, false, false, false, false, false, false, false, false, false, false, false, false, false, false, false, false, false, false, false, false, false, false, false, false, false, false, false, false, false, false, false, false, false, false, false, false, false, false, false, false, false, false, false, false, false, false, false, false, false, false, false, false, false, false, false, false, false, false, false, false, false, false, false, false, false, false, false, false, false, false, false, false, false, false, false, false, false, false, false, false, false, false, false, false, false, false, false, false, false, false, false, false, false, false, false, false, false, false, false, false, false, false, false, false, false, false, false, false, false, false, false, false, false, false, false, false, false, false, false, false, false, false, false, false, false, false, false, false, false, false, false, false, false, false, false, false, false, false, false, false, false, false, false, false, false, false, false, false, false, false, false, false, false, false, false, false, false, false, false, false, false, false, false, false, false, false, false, false, false, false, false, false, false, false, false, false, false, false, false, false, false, false, false, false, false, false, false, false, false, false, false, false, false, false, false, false, false, false, false, false, false, false, false, false, false, false, false, false, false, false, false, false, false, false, false, false, false, false, false, false, false, false, false, false, false, false, false, false, false, false, false, false, false, false, false, false, false, false, false, false, false, false, false, false, false, false, false, false, false, false, false, false, false, false, false, false, false, false, false, false, false, false, false, false, false, false, false, false, false, false, false, false, false, false, false, false, false, false, false, false, false, false, false, false, false, false, false, false, false, false, false, false, false, false, false, false, false, false, false, false, false, false, false, false, false, false, false, false, false, false, false, false, false, false, false, false, false, false, false, false, false, false, false, false, false, false, false, false, false, false, false, false, false, false, false, false, false, false, false, false, false, false, false, false, false, false, false, false, false, false, false, false, false, false, false, false, false, false, false, false, false, false, false, false, false, false, false, false, false, false, false, false, false, false, false, false, false, false, false, false, false, false, false, false, false, false, false, false, false, false, false, false, false, false, false, false, false, false, false, false, false, false, false, false, false, false, false, false, false, false, false, false, false, false, false, false, false, false, false, false, false, false, false, false, false, false, false, false, false, false, false, false, false, false, false, false, false, false, false, false, false, false, false, false, false, false, false, false, false, false, false, false, false, false, false, false, false, false, false, false, false, false, false, false, false, false, false, false, false, false, false, false, false, false, false, false, false, false, false, false, false, false, false, false, false, false, false, false, false, false, false, false, false, false, false, false, false, false, false, false, false, false, false, false, false, false, false, false, false, false, false, false, false, false, false, false, false, false, false, false, false, false, false, false, false, false, false, false, false, false, false, false, false, false, false, false, false, false, false, false, false, false, false, false, false, false, false, false, false, false, false, false, false, false, false, false, false, false, false, false, false, false, false, false, false, false, false, false, false, false, false, false, false, false, false, false, false, false, false, false, false, false, false, false, false, false, false, false, false, false, false, false, false, false, false, false, false, false, false, false, false, false, false, false, false, false, false, false, false, false, false, false, false, false, false, false, false, false, false, false, false, false, false, false, false, false, false, false, false, false, false, false, false, false, false, false, false, false, false, false, false, false, false, false, false, false, false, false, false, false, false, false, false, false, false, false, false, false, false, false, false, false, false, false, false, false, false, false, false, false, false, false, false, false, false, false, false, false, false, false, false, false, false, false, false, false, false, false, false, false, false, false, false, false, false, false, false, false, false, false, false, false, false, false, false, false, false, false, false, false, false, false, false, false, false, false, false, false, false, false, false, false, false, false, false, false, false, false, false, false, false, false, false, false, false, false, false, false, false, false, false, false, false, false, false, false, false, false, false, false, false, false, false, false, false, false, false, false, false, false, false, false, false, false, false, false, false, false, false, false, false, false, false, false, false, false, false, false, false, false, false, false, false, false, false, false, false, false, false, false, false, false, false, false, false, false, false, false, false, false, false, false, false, false, false, false, false, false, false, false, false, false, false, false, false, false, false, false, false, false, false, false, false, false, false, false, false, false, false, false, false, false, false, false, false, false, false, false, false, false, false, false, false, false, false, false, false, false, false, false, false, false, false, false, false, false, false, false, false, false, false, false, false, false, false, false, false, false, false, false, false, false, false, false, false, false, false, false, false, false, false, false, false, false, false, false, false, false, false, false, false, false, false, false, false, false, false, false, false, false, false, false, false, false, false, false, false, false, false, false, false, false, false, false, false, false, false, false, false, false, false, false, false, false, false, false, false, false, false, false, false, false, false, false, false, false, false, false, false, false, false, false, false, false, false, false, false, false, false, false, false, false, false, false, false, false, false, false, false, false, false, false, false, false, false, false, false, false, false, false, false, false, false, false, false, false, false, false, false, false, false, false, false, false, false, false, false, false, false, false, false, false, false, false, false, false, false, false, false, false, false, false, false, false, false, false, false, false, false, false, false, false, false, false, false, false, false, false, false, false, false, false, false, false, false, false, false, false, false, false, false, false, false, false, false, false, false, false, false, false, false, false, false, false, false, false, false, false, false, false, false, false, false, false, false, false, false, false, false, false, false, false, false, false, false, false, false, false, false, false, false, false, false, false, false, false, false, false, false, false, false, false, false, false, false, false, false, false, false, false, false, false, false, false, false, false, false, false, false, false, false, false, false, false, false, false, false, false, false, false, false, false, false, false, false, false, false, false, false, false, false, false, false, false, false, false, false, false, false, false, false, false, false, false, false, false, false, false, false, false, false, false, false, false, false, false, false, false, false, false, false, false, false, false, false, false, false, false, false, false, false, false, false, false, false, false, false, false, false, false, false, false, false, false, false, false, false, false, false, false, false, false, false, false, false, false, false, false, false, false, false, false, false, false, false, false, false, false, false, false, false, false, false, false, false, false, false, false, false, false, false, false, false, false, false, false, false, false, false, false, false, false, false, false, false, false, false, false, false, false, false, false, false, false, false, false, false, false, false, false, false, false, false, false, false, false, false, false, false, false, false, false, false, false, false, false, false, false, false, false, false, false, false, false, false, false, false, false, false, false, false, false, false, false, false, false, false, false, false, false, false, false, false, false, false, false, false, false, false, false, false, false, false, false, false, false, false, false, false, false, false, false, false, false, false, false, false, false, false, false, false, false, false, false, false, false, false, false, false, false, false, false, false, false, false, false, false, false, false, false, false, false, false, false, false, false, false, false, false, false, false, false, false, false, false, false, false, false, false, false, false, false, false, false, false, false, false, false, false, false, false, false, false, false, false, false, false, false, false, false, false, false, false, false, false, false, false, false, false, false, false, false, false, false, false, false, false, false, false, false, false, false, false, false, false, false, false, false, false, false, false, false, false, false, false, false, false, false, false, false, false, false, false, false, false, false, false, false, false, false, false, false, false, false, false, false, false, false, false, false, false, false, false, false, false, false, false, false, false, false, false, false, false, false, false, false, false, false, false, false, false, false, false, false, false, false, false, false, false, false, false, false, false, false, false, false, false, false, false, false, false, false, false, false, false, false, false, false, false, false, false, false, false, false, false, false, false, false, false, false, false, false, false, false, false, false, false, false, false, false, false, false, false, false, false, false, false, false, false, false, false, false, false, false, false, false, false, false, false, false, false, false, false, false, false, false, false, false, false, false, false, false, false, false, false, false, false, false, false, false, false, false, false, false, false, false, false, false, false, false, false, false, false, false, false, false, false, false, false, false, false, false, false, false, false, false, false, false, false, false, false, false, false, false, false, false, false, false, false, false, false, false, false, false, false, false, false, false, false, false, false, false, false, false, false, false, false, false, false, false, false, false, false, false, false, false, false, false, false, false, false, false, false, false, false, false, false, false, false, false, true, true, true, true, true, true, true, true, true, true, true, true, true, true, true, true, true, true, true, true, true, true, true, true, true, true, true, true, true, true, true, true, true, true, true, true, true, true, true, true, true, true, true, true, true, true, true, true, true, true, true, true, true, true, true, true, true, true, true, true, true, true, true, true, true, true, true, true, true, true, true, true, true, true, true, true, true, true, true, true, true, true, true, true, true, true, true, true, true, true, true, true, true, true, true, true, true, true, true, true, true, true, true, true, true, true, true, true, true, true, true, true, true, true, true, true, true, true, true, true, true, true, true, true, true, true, true, true, true, true, true, true, true, true, true, true, true, true, true, true, true, true, true, true, true, true, true, true, true, true, true, true, true, true, true, true, true, true, true, true, true, true, true, true, true, true, true, true, true, true, true, true, true, true, true, true, true, true, true, true, true, true, true, true, true, true, true, true, true, true, true, true, true, true, true, true, true, true, true, true, true, true, true, true, true, true, true, true, true, true, true, true, true, true, true, true, true, true, true, true, true, true, true, true, true, true, true, true, true, true, true, true, true, true, true, true, true, true, true, true, true, true, true, true, true, true, true, true, true, true, true, true, true, true, true, true, true, true, true, true, true, true, true, true, true, true, true, true, true, true, true, true, true, true, true, true, true, true, true, true, true, true, true, true, true, true, true, true, true, true, true, true, true, true, true, true, true, true, true, true, true, true, true, true, true, true, true, true, true, true, true, true, true, true, true, true, true, true, true, true, true, true, true, true, true, true, true, true, true, true, true, true, true, true, true, true, true, true, true, true, true, true, true, true, true, true, true, true, true, true, true, true, true, true, true, true, true, true, true, true, true, true, true, true, true, true, true, true, true, true, true, true, true, true, true, true, true, true, true, true, true, true, true, true, true, true, true, true, true, true, true, true, true, true, true, true, true, true, true, true, true, true, true, true, true, true, true, true, true, true, true, true, true, true, true, true, true, true, true, true, true, true, true, true, true, true, true, true, true, true, true, true, true, true, true, true, true, true, true, true, true, true, true, true, true, true, true, true, true, true, true, true, true, true, true, true, true, true, true, true, true, true, true, true, true, true, true, true, true, true, true, true, true, true, true, true, true, true, true, true, true, true, true, true, true, true, true, true, true, true, true, true, true, true, true, true, true, true, true, true, true, true, true, true, true, true, true, true, true, true, true, true, true, true, true, true, true, true, true, true, true, true, true, true, true, true, true, true, true, true, true, true, true, true, true, true, true, true, true, true, true, true, true, true, true, true, true, true, true, true, true, true, true, true, true, true, true, true, true, true, true, true, true, true, true, true, true, true, true, true, true, true, true, true, true, true, true, true, true, true, true, true, true, true, true, true, true, true, true, true, true, true, true, true, true, true, true, true, true, true, true, true, true, true, true, true, true, true, true, true, true, true, true, true, true, true, true, true, true, true, true, true, true, true, true, true, true, true, true, true, true, true, true, true, true, true, true, true, true, true, true, true, true, true, true, true, true, true, true, true, true, true, true, true, true, true, true, true, true, true, true, true, true, true, true, true, true, true, true, true, true, true, true, true, true, true, true, true, true, true, true, true, true, true, true, true, true, true, true, true, true, true, true, true, true, true, true, true, true, true, true, true, true, true, true, true, true, true, true, true, true, true, true, true, true, true, true, true, true, true, true, true, true, true, true, true, true, true, true, true, true, true, true, true, true, true, true, true, true, true, true, true, true, true, true, true, true, true, true, true, true, true, true, true, true, true, true, true, true, true, true, true, true, true, true, true, true, true, true, true, true, true, true, true, true, true, true, true, true, true, true, true, true, true, true, true, true, true, true, true, true, true, true, true, true, true, true, true, true, true, true, true, true, true, true, true, true, true, true, true, true, true, true, true, true, true, true, true, true, true, true, true, true, true, true, true, true, true, true, true, true, true, true, true, true, true, true, true, true, true, true, true, true, true, true, true, true, true, true, true, true, true, true, true, true, true, true, true, true, true, true, true, true, true, true, true, true, true, true, true, true, true, true, true, true, true, true, true, true, true, true, true, true, true, true, true, true, true, true, true, true, true, true, true, true, true, true, true, true, true, true, true, true, true, true, true, true, true, true, true, true, true, true, true, true, true, true, true, true, true, true, true, true, true, true, true, true, true, true, true, true, true, true, true, true, true, true, true, true, true, true, true, true, true, true, true, true, true, true, true, true, true, true, true, true, true, true, true, true, true, true, true, true, true, true, true, true, true, true, true, true, true, true, true, true, true, true, true, true, true, true, true, true, true, true, true, true, true, true, true, true, true, true, true, true, true, true, true, true, true, true, true, true, true, true, true, true, true, true, true, true, true, true, true, true, true, true, true, true, true, true, true, true, true, true, true, true, true, true, true, true, true, true, true, true, true, true, true, true, true, true, true, true, true, true, true, true, true, true, true, true, true, true, true, true, true, true, true, true, true, true, true, true, true, true, true, true, true, true, true, true, true, true, true, true, true, true, true, true, true, true, true, true, true, true, true, true, true, true, true, true, true, true, true, true, true, true, true, true, true, true, true, true, true, true, true, true, true, true, true, true, true, true, true, true, true, true, true, true, true, true, true, true, true, true, true, true, true, true, true, true, true, true, true, true, true, true, true, true, true, true, true, true, true, true, true, true, true, true, true, true, true, true, true, true, true, true, true, true, true, true, true, true, true, true, true, true, true, true, true, true, true, true, true, true, true, true, true, true, true, true, true, true, true, true, true, true, true, true, true, true, true, true, true, true, true, true, true, true, true, true, true, true, true, true, true, true, true, true, true, true, true, true, true, true, true, true, true, true, true, true, true, true, true, true, true, true, true, true, true, true, true, true, true, true, true, true, true, true, true, true, true, true, true, true, true, true, true, true, true, true, true, true, true, true, true, true, true, true, true, true, true, true, true, true, true, true, true, true, true, true, true, true, true, true, true, true, true, true, true, true, true, true, true, true, true, true, true, true, true, true, true, true, true, true, true, true, true, true, true, true, true, true, true, true, true, true, true, true, true, true, true, true, true, true, true, true, true, true, true, true, true, true, true, true, true, true, true, true, true, true, true, true, true, true, true, true, true, true, true, true, true, true, true, true, true, true, true, true, true, true, true, true, true, true, true, true, true, true, true, true, true, true, true, true, true, true, true, true, true, true, true, true, true, true, true, true, true, true, true, true, true, true, true, true, true, true, true, true, true, true, true, true, true, true, true, true, true, true, true, true, true, true, true, true, true, true, true, true, true, true, true, true, true, true, true, true, true, true, true, true, true, true, true, true, true, true, true, true, true, true, true, true, true, true, true, true, true, true, true, true, true, true, true, true, true, true, true, true, true, true, true, true, true, true, true, true, true, true, true, true, true, true, true, true, true, true, true, true, true, true, true, true, true, true, true, true, true, true, true, true, true, true, true, true, true, true, true, true, true, true, true, true, true, true, true, true, true, true, true, true, true, true, true, true, true, true, true, true, true, true, true, true, true, true, true, true, true, true, true, true, true, true, true, true, true, true, true, true, true, true, true, true, true, true, true, true, true, true, true, true, true, true, true, true, true, true, true, true, true, true, true, true, true, true, true, true, true, true, true, true, true, true, true, true, true, true, true, true, true, true, true, true, true, true, true, true, true, true, true, true, true, true, true, true, true, true, true, true, true, true, true, true, true, true, true, true, true, true, true, true, true, true, true, true, true, true, true, true, true, true, true, true, true, true, true, true, true, true, true, true, true, true, true, true, true, true, true, true, true, true, true, true, true, true, true, true, true, true, true, true, true, true, true, true, true, true, true, true, true, true, true, true, true, true, true, true, true, true, true, true, true, true, true, true, true, true, true, true, true, true, true, true, true, true, true, true, true, true, true, true, true, true, true, true, true, true, true, true, true, true, true, true, true, true, true, true, true, true, true, true, true, true, true, true, true, true, true, true, true, true, true, true, true, true, true, true, true, true, true, true, true, true, true, true, true, true, true, true, true, true, true, true, true, true, true, true, true, true, true, true, true, true, true, true, true, true, true, true, true, true, true, true, true, true, true, true, true, true, true, true, true, true, true, true, true, true, true, true, true, true, true, true, true, true, true, true, true, true, true, true, true, true, true, true, true, true, true, true, true, true, true, true, true, true, true, true, true, true, true, true, true, true, true, true, true, true, true, true, true, true, true, true, true, true, true, true, true, true, true, true, true, true, true, true, true, true, true, true, true, true, true, true, true, true, true, true, true, true, true, true, true, true, true, true, true, true, true, true, true, true, true, true, true, true, true, true, true, true, true, true, true, true, true, true, true, true, true, true, true, true, true, true, true, true, true, true, true, true, true, true, true, true, true, true, true, true, true, true, true, true, true, true, true, true, true, true, true, true, true, true, true, true, true, true, true, true, true, true, true, true, true, true, true, true, true, true, true, true, true, true, true, true, true, true, true, true, true, true, true, true, true, true, true, true, true, true, true, true, true, true, true, true, true, true, true, true, true, true, true, true, true, true, true, true, true, true, true, true, true, true, true, true, true, true, true, true, true, true, true, true, true, true, true, true, true, true, true, true, true, true, true, true, true, true, true, true, true, true, true, true, true, true, true, true, true, true, true, true, true, true, true, true, true, true, true, true, true, true, true, true, true, true, true, true, true, true, true, true, true, true, true, true, true, true, true, true, true, true, true, true, true, true, true, true, true, true, true, true, true, true, true, true, true, true, true, true, true, true, true, true, true, true, true, true, true, true, true, true, true, true, true, true, true, true, true, true, true, true, true, true, true, true, true, true, true, true, true, true, true, true, true, true, true, true, true, true, true, true, true, true, true, true, true, true, true, true, true, true, true, true, true, true, true, true, true, true, true, true, true, true, true, true, true, true, true, true, true, true, true, true, true, true, true, true, true, true, true, true, true, true, true, true, true, true, true, true, true, true, true, true, true, true, true, true, true, true, true, true, true, true, true, true, true, true, true, true, true, true, true, true, true, true, true, true, true, true, true, true, true, true, true, true, true, true, true, true, true, true, true, true, true, true, true, true, true, true, true, true, true, true, true, true, true, true, true, true, true, true, true, true, true, true, true, true, true, true, true, true, true, true, true, true, true, true, true, true, true, true, true, true, true, true, true, true, true, true, true, true, true, true, true, true, true, true, true, true, true, true, true, true, true, true, true, true, true, true, true, true, true, true, true, true, true, true, true, true, true, true, true, true, true, true, true, true, true, true, true, true, true, true, true, true, true, true, true, true, true, true, true, true, true, true, true, true, true, true, true, true, true, true, true, true, true, true, true, true, true, true, true, true, true, true, true, true, true, true, true, true, true, true, true, true, true, true, true, true, true, true, true, true, true, true, true, true, true, true, true, true, true, true, true, true, true, true, true, true, true, true, true, true, true, true, true, true, true, true, true, true, true, true, true, true, true, true, true, true, true, true, true, true, true, true, true, true, true, true, true, true, true, true, true, true, true, true, true, true, true, true, true, true, true, true, true, true, true, true, true, true, true, true, true, true, true, true, true, true, true, true, true, true, true, true, true, true, true, true, true, true, true, true, true, true, true, true, true, true, true, true, true, true, true, true, true, true, true, true, true, true, true, true, true, true, true, true, true, true, true, true, true, true, true, true, true, true, true, true, true, true, true, true, true, true, true, true, true, true, true, true, true, true, true, true, true, true, true, true, true, true, true, true, true, true, true, true, true, true, true, true, true, true, true, true, true, true, true, true, true, true, true, true, true, true, true, true, true, true, true, true, true, true, true, true, true, true, true, true, true, true, true, true, true, true, true, true, true, true, true, true, true, true, true, true, true, true, true, true, true, true, true, true, true, true, true, true, true, true, true, true, true, true, true, true, true, true, true, true, true, true, true, true, true, true, true, true, true, true, true, true, true, true, true, true, true, true, true, true, true, true, true, true, true, true, true, true, true, true, true, true, true, true, true, true, true, true, true, true, true, true, true, true, true, true, true, true, true, true, true, true, true, true, true, true, true, true, true, true, true, true, true, true, true, true, true, true, true, true, true, true, true, true, true, true, true, true, true, true, true, true, true, true, true, true, true, true, true, true, true, true, true, true, true, true, true, true, true, true, true, true, true, true, true, true, true, true, true, true, true, true, true, true, true, true, true, true, true, true, true, true, true, true, true, true, true, true, true, true, true, true, true, true, true, true, true, true, true, true, true, true, true, true, true, true, true, true, true, true, true, true, true, true, true, true, true, true, true, true, true, true, true, true, true, true, true, true, true, true, true, true, true, true, true, true, true, true, true, true, true, true, true, true, true, true, true, true, true, true, true, true, true, true, true, true, true, true, true, true, true, true, true, true, true, true, true, true, true, true, true, true, true, true, true, true, true, true, true, true, true, true, true, true, true, true, true, true, true, true, true, true, true, true, true, true, true, true, true, true, true, true, true, true, true, true, true, true, true, true, true, true, true, true, true, true, true, true, true, true, true, true, true, true, true, true, true, true, true, true, true, true, true, true, true, true, true, true, true, true, true, true, true, true, true, true, true, true, true, true, true, true, true, true, true, true, true, true, true, true, true, true, true, true, true, true, true, true, true, true, true, true, true, true, true, true, true, true, true, true, true, true, true, true, true, true, true, true, true, true, true, true, true, true, true, true, true, true, true, true, true, true, true, true, true, true, true, true, true, true, true, true, true, true, true, true, true, true, true, true, true, true, true, true, true, true, true, true, true, true, true, true, true, true, true, true, true, true, true, true, true, true, true, true, true, true, true, true, true, true, true, true, true, true, true, true, true, true, true, true, true, true, true, true, true, true, true, true, true, true, true, true, true, true, true, true, true, true, true, true, true, true, true, true, true, true, true, true, true, true, true, true, true, true, true, true, true, true, true, true, true, true, true, true, true, true, true, true, true, true, true, true, true, true, true, true, true, true, true, true, true, true, true, true, true, true, true, true, true, true, true, true, true, true, true, true, true, true, true, true, true, true, true, true, true, true, true, true, true, true, true, true, true, true, true, true, true, true, true, true, true, true, true, true, true, true, true, true, true, true, true, true, true, true, true, true, true, true, true, true, true, true, true, true, true, true, true, true, true, true, true, true, true, true, true, true, true, true, true, true, true, true, true, true, true, true, true, true, true, true, true, true, true, true, true, true, true, true, true, true, true, true, true, true, true, true, true, true, true, true, true, true, true, true, true, true, true, true, true, true, true, true, true, true, true, true, true, true, true, true, true, true, true, true, true, true, true, true, true, true, true, true, true, true, true, true, true, true, true, true, true, true, true, true, true, true, true, true, true, true, true, true, true, true, true, true, true, true, true, true, true, true, true, true, true, true, true, true, true, true, true, true, true, true, true, true, true, true, true, true, true, true, true, true, true, true, true, true, true, true, true, true, true, true, true, true, true, true, true, true, true, true, true, true, true, true, true, true, true, true, true, true, true, true, true, true, true, true, true, true, true, true, true, true, true, true, true, true, true, true, true, true, true, true, true, true, true, true, true, true, true, true, true, true, true, true, true, true, true, true, true, true, true, true, true, true, true, true, true, true, true, true, true, true, true, true, true, true, true, true, true, true, true, true, true, true, true, true, true, true, true, true, true, true, true, true, true, true, true, true, true, true, true, true, true, true, true, true, true, true, true, true, true, true, true, true, true, true, true, true, true, true, true, true, true, true, true, true, true, true, true, true, true, true, true, true, true, true, true, true, true, true, true, true, true, true, true, true, true, true, true, true, true, true, true, true, true, true, true, true, true, true, true, true, true, true, true, true, true, true, true, true, true, true, true, true, true, true, true, true, true, true, true, true, true, true, true, true, true, true, true, true, true, true, true, true, true, true, true, true, true, true, true, true, true, true, true, true, true, true, true, true, true, true, true, true, true, true, true, true, true, true, true, true, true, true, true, true, true, true, true, true, true, true, true, true, true, true, true, true, true, true, true, true, true, true, true, true, true, true, true, true, true, true, true, true, true, true, true, true, true, true, true, true, true, true, true, true, true, true, true, true, true, true, true, true, true, true, true, true, true, true, true, true, true, true, true, true, true, true, true, true, true, true, true, true, true, true, true, true, true, true, true, true, true, true, true, true, true, true, true, true, true, true, true, true, true, true, true, true, true, true, true, true, true, true, true, true, true, true, true, true, true, true, true, true, true, true, true, true, true, true, true, true, true, true, true, true, true, true, true, true, true, true, true, true, true, true, true, true, true, true, true, true, true, true, true, true, true, true, true, true, true, true, true, true, true, true, true, true, true, true, true, true, true, true, true, true, true, true, true, true, true, true, true, true, true, true, true, true, true, true, true, true, true, true, true, true, true, true, true, true, true, true, true, true, true, true, true, true, true, true, true, true, true, true, true, true, true, true, true, true, true, true, true, true, true, true, true, true, true, true, true, true, true, true, true, true, true, true, true, true, true, true, true, true, true, true, true, true, true, true, true, true, true, true, true, true, true, true, true, true, true, true, true, true, true, true, true, true, true, true, true, true, true, true, true, true, true, true, true, true, true, true, true, true, true, true, true, true, true, true, true, true, true, true, true, true, true, true, true, true, true, true, true, true, true, true, true, true, true, true, true, true, true, true, true, true, true, true, true, true, true, true, true, true, true, true, true, true, true, true, true, true, true, true, true, true, true, true, true, true, true, true, true, true, true, true, true, true, true, true, true, true, true, true, true, true, true, true, true, true, true, true, true, true, true, true, true, true, true, true, true, true, true, true, true, true, true, true, true, true, true, true, true, true, true, true, true, true, true, true, true, true, true, true, true, true, true, true, true, true, true, true, true, true, true, true, true, true, true, true, true, true, true, true, true, true, true, true, true, true, true, true, true, true, true, true, true, true, true, true, true, true, true, true, true, true, true, true, true, true, true, true, true, true, true, true, true, true, true, true, true, true, true, true, true, true, true, true, true, true, true, true, true, true, true, true, true, true, true, true, true, true, true, true, true, true, true, true, true, true, true, true, true, true, true, true, true, true, true, true, true, true, true, true, true, true, true, true, true, true, true, true, true, true, true, true, true, true, true, true, true, true, true, true, true, true, true, true, true, true, true, true, true, true, true, true, true, true, true, true, true, true, true, true, true, true, true, true, true, true, true, true, true, true, true, true, true, true, true, true, true, true, true, true, true, true, true, true, true, true, true, true, true, true, true, true, true, true, true, true, true, true, true, true, true, true, true, true, true, true, true, true, true, true, true, true, true, true, true, true, true, true, true, true, true, true, true, true, true, true, true, true, true, true, true, true, true, true, true, true, true, true, true, true, true, true, true, true, true, true, true, true, true, true, true, true, true, true, true, true, true, true, true, true, true, true, true, true, true, true, true, true, true, true, true, true, true, true, true, true, true, true, true, true, true, true, true, true, true, true, true, true, true, true, true, true, true, true, true, true, true, true, true, true, true, true, true, true, true, true, true, true, true, true, true, true, true, true, true, true, true, true, true, true, true, true, true, true, true, true, true, true, true, true, true, true, true, true, true, true, true, true, true, true, true, true, true, true, true, true, true, true, true, true, true, true, true, true, true, true, true, true, true, true, true, true, true, true, true, true, true, true, true, true, true, true, true, true, true, true, true, true, true, true, true, true, true, true, true, true, true, true, true, true, true, true, true, true, true, true, true, true, true, true, true, true, true, true, true, true, true, true, true, true, true, true, true, true, true, true, true, true, true, true, true, true, true, true, true, true, true, true, true, true, true, true, true, true, true, true, true, true, true, true, true, true, true, true, true, true, true, true, true, true, true, true, true, true, true, true, true, true, true, true, true, true, true, true, true, true, true, true, true, true, true, true, true, true, true, true, true, true, true, true, true, true, true, true, true, true, true, true, true, true, true, true, true, true, true, true, true, true, true, true, true, true, true, true, true, true, true, true, true, true, true, true, true, true, true, true, true, true, true, true, true, true, true, true, true, true, true, true, true, true, true, true, true, true, true, true, true, true, true, true, true, true, true, true, true, true, true, true, true, true, true, true, true, true, true, true, true, true, true, true, true, true, true, true, true, true, true, true, true, true, true, true, true, true, true, true, true, true, true, true, true, true, true, true, true, true, true, true, true, true, true, true, true, true, true, true, true, true, true, true, true, true, true, true, true, true, true, true, true, true, true, true, true, true, true, true, true, true, true, true, true, true, true, true, true, true, true, true, true, true, true, true, true, true, true, true, true, true, true, true, true, true, true, true, true, true, true, true, true, true, true, true, true, true, true, true, true, true, true, true, true, true, true, true, true, true, true, true, true, true, true, true, true, true, true, true, true, true, true, true, true, true, true, true, true, true, true, true, true, true, true, true, true, true, true, true, true, true, true, true, true, true, true, true, true, true, true, true, true, true, true, true, true, true, true, true, true, true, true, true, true, true, true, true, true, true, true, true, true, true, true, true, true, true, true, true, true, true, true, true, true, true, true, true, true, true, true, true, true, true, true, true, true, true, true, true, true, true, true, true, true, true, true, true, true, true, true, true, true, true, true, true, true, true, true, true, true, true, true, true, true, true, true, true, true, true, true, true, true, true, true, true, true, true, true, true, true, true, true, true, true, true, true, true, true, true, true, true, true, true, true, true, true, true, true, true, true, true, true, true, true, true, true, true, true, true, true, true, true, true, true, true, true, true, true, true, true, true, true, true, true, true, true, true, true, true, true, true, true, true, true, true, true, true, true, true, true, true, true, true, true, true, true, true, true, true, true, true, true, true, true, true, true, true, true, true, true, true, true, true, true, true, true, true, true, true, true, true, true, true, true, true, true, true, true, true, true, true, true, true, true, true, true, true, true, true, true, true, true, true, true, true, true, true, true, true, true, true, true, true, true, true, true, true, true, true, true, true, true, true, true, true, true, true, true, true, true, true, true, true, true, true, true, true, true, true, true, true, true, true, true, true, true, true, true, true, true, true, true, true, true, true, true, true, true, true, true, true, true, true, true, true, true, true, true, true, true, true, true, true, true, true, true, true, true, true, true, true, true, true, true, true, true, true, true, true, true, true, true, true, true, true, true, true, true, true, true, true, true, true, true, true, true, true, true, true, true, true, true, true, true, true, true, true, true, true, true, true, true, true, true, true, true, true, true, true, true, true, true, true, true, true, true, true, true, true, true, true, true, true, true, true, true, true, true, true, true, true, true, true, true, true, true, true, true, true, true, true, true, true, true, true, true, true, true, true, true, true, true, true, true, true, true, true, true, true, true, true, true, true, true, true, true, true, true, true, true, true, true, true, true, true, true, true, true, true, true, true, true, true, true, true, true, true, true, true, true, true, true, true, true, true, true, true, true, true, true, true, true, true, true, true, true, true, true, true, true, true, true, true, true, true, true, true, true, true, true, true, true, true, true, true, true, true, true, true, true, true, true, true, true, true, true, true, true, true, true, true, true, true, true, true, true, true, true, true, true, true, true, true, true, true, true, true, true, true, true, true, true, true, true, true, true, true, true, true, true, true, true, true, true, true, true, true, true, true, true, true, true, true, true, true, true, true, true, true, true, true, true, true, true, true, true, true, true, true, true, true, true, true, true, true, true, true, true, true, true, true, true, true, true, true, true, true, true, true, true, true, true, true, true, true, true, true, true, true, true, true, true, true, true, true, true, true, true, true, true, true, true, true, true, true, true, true, true, true, true, true, true, true, true, true, true, true, true, true, true, true, true, true, true, true, true, true, true, true, true, true, true, true, true, true, true, true, true, true, true, true, true, true, true, true, true, true, true, true, true, true, true, true, true, true, true, true, true, true, true, true, true, true, true, true, true, true, true, true, true, true, true, true, true, true, true, true, true, true, true, true, true, true, true, true, true, true, true, true, true, true, true, true, true, true, true, true, true, true, true, true, true, true, true, true, true, true, true, true, true, true, true, true, true, true, true, true, true, true, true, true, true, true, true, true, true, true, true, true, true, true, true, true, true, true, true, true, true, true, true, true, true, true, true, true, true, true, true, true, true, true, true, true, true, true, true, true, true, true, true, true, true, true, true, true, true, true, true, true, true, true, true, true, true, true, true, true, true, true, true, true, true, true, true, true, true, true, true, true, true, true, true, true, true, true, true, true, true, true, true, true, true, true, true, true, true, true, true, true, true, true, true, true, true, true, true, true, true, true, true, true, true, true, true, true, true, true, true, true, true, true, true, true, true, true, true, true, true, true, true, true, true, true, true, true, true, true, true, true, true, true, true, true, true, true, true, true, true, true, true, true, true, true, true, true, true, true, true, true, true, true, true, true, true, true, true, true, true, true, true, true, true, true, true, true, true, true, true, true, true, true, true, true, true, true, true, true, true, true, true, true, true, true, true, true, true, true, true, true, true, true, true, true, true, true, true, true, true, true, true, true, true, true, true, true, true, true, true, true, true, true, true, true, true, true, true, true, true, true, true, true, true, true, true, true, true, true, true, true, true, true, true, true, true, true, true, true, true, true, true, true, true, true, true, true, true, true, true, true, true, true, true, true, true, true, true, true, true, true, true, true, true, true, true, true, true, true, true, true, true, true, true, true, true, true, true, true, true, true, true, true, true, true, true, true, true, true, true, true, true, true, true, true, true, true, true, true, true, true, true, true, true, true, true, true, true, true, true, true, true, true, true, true, true, true, true, true, true, true, true, true, true, true, true, true, true, true, true, true, true, true, true, true, true, true, true, true, true, true, true, true, true, true, true, true, true, true, true, true, true, true, true, true, true, true, true, true, true, true, true, true, true, true, true, true, true, true, true, true, true, true, true, true, true, true, true, true, true, true, true, true, true, true, true, true, true, true, true, true, true, true, true, true, true, true, true, true, true, true, true, true, true, true, true, true, true, true, true, true, true, true, true, true, true, true, true, true, true, true, true, true, true, true, true, true, true, true, true, true, true, true, true, true, true, true, true, true, true, true, true, true, true, true, true, true, true, true, true, true, true, true, true, true, true, true, true, true, true, true, true, true, true, true, true, true, true, true, true, true, true, true, true, true, true, true, true, true, true, true, true, true, true, true, true, true, true, true, true, true, true, true, true, true, true, true, true, true, true, true, true, true, true, true, true, true, true, true, true, true, true, true, true, true, true, true, true, true, true, true, true, true, true, true, true, true, true, true, true, true, true, true, true, true, true, true, true, true, true, true, true, true, true, true, true, true, true, true, true, true, true, true, true, true, true, true, true, true, true, true, true, true, true, true, true, true, true, true, true, true, true, true, true, true, true, true, true, true, true, true, true, true, true, true, true, true, true, true, true, true, true, true, true, true, true, true, true, true, true, true, true, true, true, true, true, true, true, true, true, true, true, true, true, true, true, true, true, true, true, true, true, true, true, true, true, true, true, true, true, true, true, true, true, true, true, true, true, true, true, true, true, true, true, true, true, true, true, true, true, true, true, true, true, true, true, true, true, true, true, true, true, true, true, true, true, true, true, true, true, true, true, true, true, true, true, true, true, true, true, true, true, true, true, true, true, true, true, true, true, true, true, true, true, true, true, true, true, true, true, true, true, true, true, true, true, true, true, true, true, true, true, true, true, true, true, true, true, true, true, true, true, true, true, true, true, true, true, true, true, true, true, true, true, true, true, true, true, true, true, true, true, true, true, true, true, true, true, true, true, true, true, true, true, true, true, true, true, true, true, true, true, true, true, true, true, true, true, true, true, true, true, true, true, true, true, true, true, true, true, true, true, true, true, true, true, true, true, true, true, true, true, true, true, true, true, true, true, true, true, true, true, true, true, true, true, true, true, true, true, true, true, true, true, true, true, true, true, true, true, true, true, true, true, true, true, true, true, true, true, true, true, true, true, true, true, true, true, true, true, true, true, true, true, true, true, true, true, true, true, true, true, true, true, true, true, true, true, true, true, true, true, true, true, true, true, true, true, true, true, true, true, true, true, true, true, true, true, true, true, true, true, true, true, true, true, true, true, true, true, true, true, true, true, true, true, true, true, true, true, true, true, true, true, true, true, true, true, true, true, true, true, true, true, true, true, true, true, true, true, true, true, true, true, true, true, true, true, true, true, true, true, true, true, true, true, true, true, true, true, true, true, true, true, true, true, true, true, true, true, true, true, true, true, true, true, true, true, true, true, true, true, true, true, true, true, true, true, true, true, true, true, true, true, true, true, true, true, true, true, true, true, true, true, true, true, true, true, true, true, true, true, true, true, true, true, true, true, true, true, true, true, true, true, true, true, true, true, true, true, true, true, true, true, true, true, true, true, true, true, true, true, true, true, true, true, true, true, true, true, true, true, true, true, true, true, true, true, true, true, true, true, true, true, true, true, true, true, true, true, true, true, true, true, true, true, true, true, true, true, true, true, true, true, true, true, true, true, true, true, true, true, true, true, true, true, true, true, true, true, true, true, true, true, true, true, true, true, true, true, true, true, true, true, true, true, true, true, true, true, true, true, true, true, true, true, true, true, true, true, true, true, true, true, true, true, true, true, true, true, true, true, true, true, true, true, true, true, true, true, true, true, true, true, true, true, true, true, true, true, true, true, true, true, true, true, true, true, true, true, true, true, true, true, true, true, true, true, true, true, true, true, true, true, true, true, true, true, true, true, true, true, true, true, true, true, true, true, true, true, true, true, true, true, true, true, true, true, true, true, true, true, true, true, true, true, true, true, true, true, true, true, true, true, true, true, true, true, true, true, true, true, true, true, true, true, true, true, true, true, true, true, true, true, true, true, true, true, true, true, true, true, true, true, true, true, true, true, true, true, true, true, true, true, true, true, true, true, true, true, true, true, true, true, true, true, true, true, true, true, true, true, true, true, true, true, true, true, true, true, true, true, true, true, true, true, true, true, true, true, true, true, true, true, true, true, true, true, true, true, true, true, true, true, true, true, true, true, true, true, true, true, true, true, true, true, true, true, true, true, true, true, true, true, true, true, true, true, true, true, true, true, true, true, true, true, true, true, true, true, true, true, true, true, true, true, true, true, true, true, true, true, true, true, true, true, true, true, true, true, true, true, true, true, true, true, true, true, true, true, true, true, true, true, true, true, true, true, true, true, true, true, true, true, true, true, true, true, true, true, true, true, true, true, true, true, true, true, true, true, true, true, true, true, true, true, true, true, true, true, true, true, true, true, true, true, true, true, true, true, true, true, true, true, true, true, true, true, true, true, true, true, true, true, true, true, true, true, true, true, true, true, true, true, true, true, true, true, true, true, true, true, true, true, true, true, true, true, true, true, true, true, true, true, true, true, true, true, true, true, true, true, true, true, true, true, true, true, true, true, true, true, true, true, true, true, true, true, true, true, true, true, true, true, true, true, true, true, true, true, true, true, true, true, true, true, true, true, true, true, true, true, true, true, true, true, true, true, true, true, true, true, true, true, true, true, true, true, true, true, true, true, true, true, true, true, true, true, true, true, true, true, true, true, true, true, true, true, true, true, true, true, true, true, true, true, true, true, true, true, true, true, true, true, true, true, true, true, true, true, true, true, true, true, true, true, true, true, true, true, true, true, true, true, true, true, true, true, true, true, true, true, true, true, true, true, true, true, true, true, true, true, true, true, true, true, true, true, true, true, true, true, true, true, true, true, true, true, true, true, true, true, true, true, true, true, true, true, true, true, true, true, true, true, true, true, true, true, true, true, true, true, true, true, true, true, true, true, true, true, true, true, true, true, true, true, true, true, true, true, true, true, true, true, true, true, true, true, true, true, true, true, true, true, true, true, true, true, true, true, true, true, true, true, true, true, true, true, true, true, true, true, true, true, true, true, true, true, true, true, true, true, true, true, true, true, true, true, true, true, true, true, true, true, true, true, true, true, true, true, true, true, true, true, true, true, true, true, true, true, true, true, true, true, true, true, true, true, true, true, true, true, true, true, true, true, true, true, true, true, true, true, true, true, true, true, true, true, true, true, true, true, true, true, true, true, true, true, true, true, true, true, true, true, true, true, true, true, true, true, true, true, true, true, true, true, true, true, true, true, true, true, true, true, true, true, true, true, true, true, true, true, true, true, true, true, true, true, true, true, true, true, true, true, true, true, true, true, true, true, true, true, true, true, true, true, true, true, true, true, true, true, true, true, true, true, true, true, true, true, true, true, true, true, true, true, true, true, true, true, true, true, true, true, true, true, true, true, true, true, true, true, true, true, true, true, true, true, true, true, true, true, true, true, true, true, true, true, true, true, true, true, true, true, true, true, true, true, true, true, true, true, true, true, true, true, true, true, true, true, true, true, true, true, true, true, true, true, true, true, true, true, true, true, true, true, true, true, true, true, true, true, true, true, true, true, true, true, true, true, true, true, true, true, true, true, true, true, true, true, true, true, true, true, true, true, true, true, true, true, true, true, true, true, true, true, true, true, true, true, true, true, true, true, true, true, true, true, true, true, true, true, true, true, true, true, true, true, true, true, true, true, true, true, true, true, true, true, true, true, true, true, true, true, true, true, true, true, true, true, true, true, true, true, true, true, true, true, true, true, true, true, true, true, true, true, true, true, true, true, true, true, true, true, true, true, true, true, true, true, true, true, true, true, true, true, true, true, true, true, true, true, true, true, true, true, true, true, true, true, true, true, true, true, true, true, true, true, true, true, true, true, true, true, true, true, true, true, true, true, true, true, true, true, true, true, true, true, true, true, true, true, true, true, true, true, true, true, true, true, true, true, true, true, true, true, true, true, true, true, true, true, true, true, true, true, true, true, true, true, true, true, true, true, true, true, true, true, true, true, true, true, true, true, true, true, true, true, true, true, true, true, true, true, true, true, true, true, true, true, true, true, true, true, true, true, true, true, true, true, true, true, true, true, true, true, true, true, true, true, true, true, true, true, true, true, true, true, true, true, true, true, true, true, true, true, true, true, true, false, false, false, false, false, false, false, false, false, false, false, false, false, false, false, false, false, false, false, false, false, false, false, false, false, false, false, false, false, false, false, false, false, false, false, false, false, false, false, false, false, false, false, false, false, false, false, false, false, false, false, false, false, false, false, false, false, false, false, false, false, false, false, false, false, false, false, false, false, false, false, false, false, false, false, false, false, false, false, false, false, false, false, false, false, false, false, false, false, false, false, false, false, false, false, false, false, false, false, false, false, false, false, false, false, false, false, false, false, false, false, false, false, false, false, false, false, false, false, false, false, false, false, false, false, false, false, false, false, false, false, false, false, false, false, false, false, false, false, false, false, false, false, false, false, false, false, false, false, false, false, false, false, false, false, false, false, false, false, false, false, false, false, false, false, false, false, false, false, false, false, false, false, false, false, false, false, false, false, false, false, false, false, false, false, false, false, false, false, false, false, false, false, false, false, false, false, false, false, false, false, false, false, false, false, false, false, false, false, false, false, false, false, false, false, false, false, false, false, false, false, false, false, false, false, false, false, false, false, false, false, false, false, false, false, false, false, false, false, false, false, false, false, false, false, false, false, false, false, false, false, false, false, false, false, false, false, false, false, false, false, false, false, false, false, false, false, false, false, false, false, false, false, false, false, false, false, false, false, false, false, false, false, false, false, false, false, false, false, false, false, false, false, false, false, false, false, false, false, false, false, false, false, false, false, false, false, false, false, false, false, false, false, false, false, false, false, false, false, false, false, false, false, false, false, false, false, false, false, false, false, false, false, false, false, false, false, false, false, false, false, false, false, false, false, false, false, false, false, false, false, false, false, false, false, false, false, false, false, false, false, false, false, false, false, false, false, false, false, false, false, false, false, false, false, false, false, false, false, false, false, false, false, false, false, false, false, false, false, false, false, false, false, false, false, false, false, false, false, false, false, false, false, false, false, false, false, false, false, false, false, false, false, false, false, false, false, false, false, false, false, false, false, false, false, false, false, false, false, false, false, false, false, false, false, false, false, false, false, false, false, false, false, false, false, false, false, false, false, false, false, false, false, false, false, false, false, false, false, false, false, false, false, false, false, false, false, false, false, false, false, false, false, false, false, false, false, false, false, false, false, false, false, false, false, false, false, false, false, false, false, false, false, false, false, false, false, false, false, false, false, false, false, false, false, false, false, false, false, false, false, false, false, false, false, false, false, false, false, false, false, false, false, false, false, false, false, false, false, false, false, false, false, false, false, false, false, false, false, false, false, false, false, false, false, false, false, false, false, false, false, false, false, false, false, false, false, false, false, false, false, false, false, false, false, false, false, false, false, false, false, false, false, false, false, false, false, false, false, false, false, false, false, false, false, false, false, false, false, false, false, false, false, false, false, false, false, false, false, false, false, false, false, false, false, false, false, false, false, false, false, false, false, false, false, false, false, false, false, false, false, false, false, false, false, false, false, false, false, false, false, false, false, false, false, false, false, false, false, false, false, false, false, false, false, false, false, false, false, false, false, false, false, false, false, false, false, false, false, false, false, false, false, false, false, false, false, false, false, false, false, false, false, false, false, false, false, false, false, false, false, false, false, false, false, false, false, false, false, false, false, false, false, false, false, false, false, false, false, false, false, false, false, false, false, false, false, false, false, false, false, false, false, false, false, false, false, false, false, false, false, false, false, false, false, false, false, false, false, false, false, false, false, false, false, false, false, false, false, false, false, false, false, false, false, false, false, false, false, false, false, false, false, false, false, false, false, false, false, false, false, false, false, false, false, false, false, false, false, false, false, false, false, false, false, false, false, false, false, false, false, false, false, false, false, false, false, false, false, false, false, false, false, false, false, false, false, false, false, false, false, false, false, false, false, false, false, false, false, false, false, false, false, false, false, false, false, false, false, false, false, false, false, false, false, false, false, false, false, false, false, false, false, false, false, false, false, false, false, false, false, false, false, false, false, false, false, false, false, false, false, false, false, false, false, false, false, false, false, false, false, false, false, false, false, false, false, false, false, false, false, false, false, false, false, false, false, false, false, false, false, false, false, false, false, false, false, false, false, false, false, false, false, false, false, false, false, false, false, false, false, false, false, false, false, false, false, false, false, false, false, false, false, false, false, false, false, false, false, false, false, false, false, false, false, false, false, false, false, false, false, false, false, false, false, false, false, false, false, false, false, false, false, false, false, false, false, false, false, false, false, false, false, false, false, false, false, false, false, false, false, false, false, false, false, false, false, false, false, false, false, false, false, false, false, false, false, false, false, false, false, false, false, false, false, false, false, false, false, false, false, false, false, false, false, false, false, false, false, false, false, false, false, false, false, false, false, false, false, false, false, false, false, false, false, false, false, false, false, false, false, false, false, false, false, false, false, false, false, false, false, false, false, false, false, false, false, false, false, false, false, false, false, false, false, false, false, false, false, false, false, false, false, false, false, false, false, false, false, false, false, false, false, false, false, false, false, false, false, false, false, false, false, false, false, false, false, false, false, false, false, false, false, false, false, false, false, false, false, false, false, false, false, false, false, false, false, false, false, false, false, false, false, false, false, false, false, false, false, false, false, false, false, false, false, false, false, false, false, false, false, false, false, false, false, false, false, false, false, false, false, false, false, false, false, false, false, false, false, false, false, false, false, false, false, false, false, false, false, false, false, false, false, false, false, false, false, false, false, false, false, false, false, false, false, false, false, false, false, false, false, false, false, false, false, false, false, false, false, false, false, false, false, false, false, false, false, false, false, false, false, false, false, false, false, false, false, false, false, false, false, false, false, false, false, false, false, false, false, false, false, false, false, false, false, false, false, false, false, false, false, false, false, false, false, false, false, false, false, false, false, false, false, false, false, false, false, false, false, false, false, false, false, false, false, false, false, false, false, false, false, false, false, false, false, false, false, false, false, false, false, false, false, false, false, false, false, false, false, false, false, false, false, false, false, false, false, false, false, false, false, false, false, false, false, false, false, false, false, false, false, false, false, false, false, false, false, false, false, false, false, false, false, false, false, false, false, false, false, false, false, false, false, false, false, false, false, false, false, false, false, false, false, false, false, false, false, false, false, false, false, false, false, false, false, false, false, false, false, false, false, false, false, false, false, false, false, false, false, false, false, false, false, false, false, false, false, false, false, false, false, false, false, false, false, false, false, false, false, false, false, false, false, false, false, false, false, false, false, false, false, false, false, false, false, false, false, false, false, false, false, false, false, false, false, false, false, false, false, false, false, false, false, false, false, false, false, false, false, false, false, false, false, false, false, false, false, false, false, false, false, false, false, false, false, false, false, false, false, false, false, false, false, false, false, false, false, false, false, false, false, false, false, false, false, false, false, false, false, false, false, false, false, false, false, false, false, false, false, false, false, false, false, false, false, false, false, false, false, false, false, false, false, false, false, false, false, false, false, false, false, false, false, false, false, false, false, false, false, false, false, false, false, false, false, false, false, false, false, false, false, false, false, false, false, false, false, false, false, false, false, false, false, false, false, false, false, false, false, false, false, false, false, false, false, false, false, false, false, false, false, false, false, false, false, false, false, false, false, false, false, false, false, false, false, false, false, false, false, false, false, false, false, false, false, false, false, false, false, false, false, false, false, false, false, false, false, false, false, false, false, false, false, false, false, false, false, false, false, false, false, false, false, false, false, false, false, false, false, false, false, false, false, false, false, false, false, false, false, false, false, false, false, false, false, false, false, false, false, false, false, false, false, false, false, false, false, false, false, false, false, false, false, false, false, false, false, false, false, false, false, false, false, false, false, false, false, false, false, false, false, false, false, false, false, false, false, false, false, false, false, false, false, false, false, false, false, false, false, false, false, false, false, false, false, false, false, false, false, false, false, false, false, false, false, false, false, false, false, false, false, false, false, false, false, false, false, false, false, false, false, false, false, false, false, false, false, false, false, false, false, false, false, false, false, false, false, false, false, false, false, false, false, false, false, false, false, false, false, false, false, false, false ]);
letter = array3d(1..6,1..1814,1..5, [ 11, 0, -1, -1, -1, 4, 19, -1, -1, -1, 11, 4, -1, -1, -1, 13, 4, -1, -1, -1, 0, 8, -1, -1, -1, 0, 18, -1, -1, -1, 4, 20, -1, -1, -1, 3, 20, -1, -1, -1, 18, 4, -1, -1, -1, 0, 20, -1, -1, -1, 21, 0, -1, -1, -1, 4, 18, -1, -1, -1, 2, 4, -1, -1, -1, 18, 0, -1, -1, -1, 19, 4, -1, -1, -1, 15, 20, -1, -1, -1, 12, 0, -1, -1, -1, 14, 20, -1, -1, -1, 21, 20, -1, -1, -1, 18, 20, -1, -1, -1, 18, 8, -1, -1, -1, 19, 0, -1, -1, -1, 13, 8, -1, -1, -1, 0, 13, -1, -1, -1, 0, 7, -1, -1, -1, 4, 7, -1, -1, -1, 4, 13, -1, -1, -1, 11, 20, -1, -1, -1, 1, 20, -1, -1, -1, 7, 4, -1, -1, -1, 14, 10, -1, -1, -1, 19, 20, -1, -1, -1, 13, 20, -1, -1, -1, 20, 13, -1, -1, -1, 14, 18, -1, -1, -1, 19, 14, -1, -1, -1, 8, 13, -1, -1, -1, 2, 0, -1, -1, -1, 24, 20, -1, -1, -1, 17, 4, -1, -1, -1, 7, 14, -1, -1, -1, 16, 20, -1, -1, -1, 3, 4, -1, -1, -1, 3, 14, -1, -1, -1, 6, 14, -1, -1, -1, 24, 0, -1, -1, -1, 12, 8, -1, -1, -1, 2, 8, -1, -1, -1, 1, 24, -1, -1, -1, 2, 12, -1, -1, -1, 14, 17, -1, -1, -1, 20, 18, -1, -1, -1, 5, 8, -1, -1, -1, 7, 8, -1, -1, -1, 12, 20, -1, -1, -1, 8, 5, -1, -1, -1, 17, 0, -1, -1, -1, 5, 0, -1, -1, -1, 9, 4, -1, -1, -1, 11, 8, -1, -1, -1, 14, 13, -1, -1, -1, 7, 0, -1, -1, -1, 3, 0, -1, -1, -1, 12, 4, -1, -1, -1, 1, 4, -1, -1, -1, 15, 8, -1, -1, -1, 1, 8, -1, -1, -1, 20, 19, -1, -1, -1, 9, 0, -1, -1, -1, 6, 8, -1, -1, -1, 6, 24, -1, -1, -1, 17, 8, -1, -1, -1, 17, 20, -1, -1, -1, 3, 2, -1, -1, -1, 15, 7, -1, -1, -1, 8, 11, -1, -1, -1, 3, 12, -1, -1, -1, 10, 0, -1, -1, -1, 14, 1, -1, -1, -1, 15, 2, -1, -1, -1, 2, 14, -1, -1, -1, 10, 14, -1, -1, -1, 12, 11, -1, -1, -1, 5, 24, -1, -1, -1, 0, 0, -1, -1, -1, 14, 7, -1, -1, -1, 13, 0, -1, -1, -1, 10, 12, -1, -1, -1, 12, 12, -1, -1, -1, 12, 13, -1, -1, -1, 15, 0, -1, -1, -1, -1, -1, -1, -1, -1, -1, -1, -1, -1, -1, -1, -1, -1, -1, -1, -1, -1, -1, -1, -1, -1, -1, -1, -1, -1, -1, -1, -1, -1, -1, -1, -1, -1, -1, -1, -1, -1, -1, -1, -1, -1, -1, -1, -1, -1, -1, -1, -1, -1, -1, -1, -1, -1, -1, -1, -1, -1, -1, -1, -1, -1, -1, -1, -1, -1, -1, -1, -1, -1, -1, -1, -1, -1, -1, -1, -1, -1, -1, -1, -1, -1, -1, -1, -1, -1, -1, -1, -1, -1, -1, -1, -1, -1, -1, -1, -1, -1, -1, -1, -1, -1, -1, -1, -1, -1, -1, -1, -1, -1, -1, -1, -1, -1, -1, -1, -1, -1, -1, -1, -1, -1, -1, -1, -1, -1, -1, -1, -1, -1, -1, -1, -1, -1, -1, -1, -1, -1, -1, -1, -1, -1, -1, -1, -1, -1, -1, -1, -1, -1, -1, -1, -1, -1, -1, -1, -1, -1, -1, -1, -1, -1, -1, -1, -1, -1, -1, -1, -1, -1, -1, -1, -1, -1, -1, -1, -1, -1, -1, -1, -1, -1, -1, -1, -1, -1, -1, -1, -1, -1, -1, -1, -1, -1, -1, -1, -1, -1, -1, -1, -1, -1, -1, -1, -1, -1, -1, -1, -1, -1, -1, -1, -1, -1, -1, -1, -1, -1, -1, -1, -1, -1, -1, -1, -1, -1, -1, -1, -1, -1, -1, -1, -1, -1, -1, -1, -1, -1, -1, -1, -1, -1, -1, -1, -1, -1, -1, -1, -1, -1, -1, -1, -1, -1, -1, -1, -1, -1, -1, -1, -1, -1, -1, -1, -1, -1, -1, -1, -1, -1, -1, -1, -1, -1, -1, -1, -1, -1, -1, -1, -1, -1, -1, -1, -1, -1, -1, -1, -1, -1, -1, -1, -1, -1, -1, -1, -1, -1, -1, -1, -1, -1, -1, -1, -1, -1, -1, -1, -1, -1, -1, -1, -1, -1, -1, -1, -1, -1, -1, -1, -1, -1, -1, -1, -1, -1, -1, -1, -1, -1, -1, -1, -1, -1, -1, -1, -1, -1, -1, -1, -1, -1, -1, -1, -1, -1, -1, -1, -1, -1, -1, -1, -1, -1, -1, -1, -1, -1, -1, -1, -1, -1, -1, -1, -1, -1, -1, -1, -1, -1, -1, -1, -1, -1, -1, -1, -1, -1, -1, -1, -1, -1, -1, -1, -1, -1, -1, -1, -1, -1, -1, -1, -1, -1, -1, -1, -1, -1, -1, -1, -1, -1, -1, -1, -1, -1, -1, -1, -1, -1, -1, -1, -1, -1, -1, -1, -1, -1, -1, -1, -1, -1, -1, -1, -1, -1, -1, -1, -1, -1, -1, -1, -1, -1, -1, -1, -1, -1, -1, -1, -1, -1, -1, -1, -1, -1, -1, -1, -1, -1, -1, -1, -1, -1, -1, -1, -1, -1, -1, -1, -1, -1, -1, -1, -1, -1, -1, -1, -1, -1, -1, -1, -1, -1, -1, -1, -1, -1, -1, -1, -1, -1, -1, -1, -1, -1, -1, -1, -1, -1, -1, -1, -1, -1, -1, -1, -1, -1, -1, -1, -1, -1, -1, -1, -1, -1, -1, -1, -1, -1, -1, -1, -1, -1, -1, -1, -1, -1, -1, -1, -1, -1, -1, -1, -1, -1, -1, -1, -1, -1, -1, -1, -1, -1, -1, -1, -1, -1, -1, -1, -1, -1, -1, -1, -1, -1, -1, -1, -1, -1, -1, -1, -1, -1, -1, -1, -1, -1, -1, -1, -1, -1, -1, -1, -1, -1, -1, -1, -1, -1, -1, -1, -1, -1, -1, -1, -1, -1, -1, -1, -1, -1, -1, -1, -1, -1, -1, -1, -1, -1, -1, -1, -1, -1, -1, -1, -1, -1, -1, -1, -1, -1, -1, -1, -1, -1, -1, -1, -1, -1, -1, -1, -1, -1, -1, -1, -1, -1, -1, -1, -1, -1, -1, -1, -1, -1, -1, -1, -1, -1, -1, -1, -1, -1, -1, -1, -1, -1, -1, -1, -1, -1, -1, -1, -1, -1, -1, -1, -1, -1, -1, -1, -1, -1, -1, -1, -1, -1, -1, -1, -1, -1, -1, -1, -1, -1, -1, -1, -1, -1, -1, -1, -1, -1, -1, -1, -1, -1, -1, -1, -1, -1, -1, -1, -1, -1, -1, -1, -1, -1, -1, -1, -1, -1, -1, -1, -1, -1, -1, -1, -1, -1, -1, -1, -1, -1, -1, -1, -1, -1, -1, -1, -1, -1, -1, -1, -1, -1, -1, -1, -1, -1, -1, -1, -1, -1, -1, -1, -1, -1, -1, -1, -1, -1, -1, -1, -1, -1, -1, -1, -1, -1, -1, -1, -1, -1, -1, -1, -1, -1, -1, -1, -1, -1, -1, -1, -1, -1, -1, -1, -1, -1, -1, -1, -1, -1, -1, -1, -1, -1, -1, -1, -1, -1, -1, -1, -1, -1, -1, -1, -1, -1, -1, -1, -1, -1, -1, -1, -1, -1, -1, -1, -1, -1, -1, -1, -1, -1, -1, -1, -1, -1, -1, -1, -1, -1, -1, -1, -1, -1, -1, -1, -1, -1, -1, -1, -1, -1, -1, -1, -1, -1, -1, -1, -1, -1, -1, -1, -1, -1, -1, -1, -1, -1, -1, -1, -1, -1, -1, -1, -1, -1, -1, -1, -1, -1, -1, -1, -1, -1, -1, -1, -1, -1, -1, -1, -1, -1, -1, -1, -1, -1, -1, -1, -1, -1, -1, -1, -1, -1, -1, -1, -1, -1, -1, -1, -1, -1, -1, -1, -1, -1, -1, -1, -1, -1, -1, -1, -1, -1, -1, -1, -1, -1, -1, -1, -1, -1, -1, -1, -1, -1, -1, -1, -1, -1, -1, -1, -1, -1, -1, -1, -1, -1, -1, -1, -1, -1, -1, -1, -1, -1, -1, -1, -1, -1, -1, -1, -1, -1, -1, -1, -1, -1, -1, -1, -1, -1, -1, -1, -1, -1, -1, -1, -1, -1, -1, -1, -1, -1, -1, -1, -1, -1, -1, -1, -1, -1, -1, -1, -1, -1, -1, -1, -1, -1, -1, -1, -1, -1, -1, -1, -1, -1, -1, -1, -1, -1, -1, -1, -1, -1, -1, -1, -1, -1, -1, -1, -1, -1, -1, -1, -1, -1, -1, -1, -1, -1, -1, -1, -1, -1, -1, -1, -1, -1, -1, -1, -1, -1, -1, -1, -1, -1, -1, -1, -1, -1, -1, -1, -1, -1, -1, -1, -1, -1, -1, -1, -1, -1, -1, -1, -1, -1, -1, -1, -1, -1, -1, -1, -1, -1, -1, -1, -1, -1, -1, -1, -1, -1, -1, -1, -1, -1, -1, -1, -1, -1, -1, -1, -1, -1, -1, -1, -1, -1, -1, -1, -1, -1, -1, -1, -1, -1, -1, -1, -1, -1, -1, -1, -1, -1, -1, -1, -1, -1, -1, -1, -1, -1, -1, -1, -1, -1, -1, -1, -1, -1, -1, -1, -1, -1, -1, -1, -1, -1, -1, -1, -1, -1, -1, -1, -1, -1, -1, -1, -1, -1, -1, -1, -1, -1, -1, -1, -1, -1, -1, -1, -1, -1, -1, -1, -1, -1, -1, -1, -1, -1, -1, -1, -1, -1, -1, -1, -1, -1, -1, -1, -1, -1, -1, -1, -1, -1, -1, -1, -1, -1, -1, -1, -1, -1, -1, -1, -1, -1, -1, -1, -1, -1, -1, -1, -1, -1, -1, -1, -1, -1, -1, -1, -1, -1, -1, -1, -1, -1, -1, -1, -1, -1, -1, -1, -1, -1, -1, -1, -1, -1, -1, -1, -1, -1, -1, -1, -1, -1, -1, -1, -1, -1, -1, -1, -1, -1, -1, -1, -1, -1, -1, -1, -1, -1, -1, -1, -1, -1, -1, -1, -1, -1, -1, -1, -1, -1, -1, -1, -1, -1, -1, -1, -1, -1, -1, -1, -1, -1, -1, -1, -1, -1, -1, -1, -1, -1, -1, -1, -1, -1, -1, -1, -1, -1, -1, -1, -1, -1, -1, -1, -1, -1, -1, -1, -1, -1, -1, -1, -1, -1, -1, -1, -1, -1, -1, -1, -1, -1, -1, -1, -1, -1, -1, -1, -1, -1, -1, -1, -1, -1, -1, -1, -1, -1, -1, -1, -1, -1, -1, -1, -1, -1, -1, -1, -1, -1, -1, -1, -1, -1, -1, -1, -1, -1, -1, -1, -1, -1, -1, -1, -1, -1, -1, -1, -1, -1, -1, -1, -1, -1, -1, -1, -1, -1, -1, -1, -1, -1, -1, -1, -1, -1, -1, -1, -1, -1, -1, -1, -1, -1, -1, -1, -1, -1, -1, -1, -1, -1, -1, -1, -1, -1, -1, -1, -1, -1, -1, -1, -1, -1, -1, -1, -1, -1, -1, -1, -1, -1, -1, -1, -1, -1, -1, -1, -1, -1, -1, -1, -1, -1, -1, -1, -1, -1, -1, -1, -1, -1, -1, -1, -1, -1, -1, -1, -1, -1, -1, -1, -1, -1, -1, -1, -1, -1, -1, -1, -1, -1, -1, -1, -1, -1, -1, -1, -1, -1, -1, -1, -1, -1, -1, -1, -1, -1, -1, -1, -1, -1, -1, -1, -1, -1, -1, -1, -1, -1, -1, -1, -1, -1, -1, -1, -1, -1, -1, -1, -1, -1, -1, -1, -1, -1, -1, -1, -1, -1, -1, -1, -1, -1, -1, -1, -1, -1, -1, -1, -1, -1, -1, -1, -1, -1, -1, -1, -1, -1, -1, -1, -1, -1, -1, -1, -1, -1, -1, -1, -1, -1, -1, -1, -1, -1, -1, -1, -1, -1, -1, -1, -1, -1, -1, -1, -1, -1, -1, -1, -1, -1, -1, -1, -1, -1, -1, -1, -1, -1, -1, -1, -1, -1, -1, -1, -1, -1, -1, -1, -1, -1, -1, -1, -1, -1, -1, -1, -1, -1, -1, -1, -1, -1, -1, -1, -1, -1, -1, -1, -1, -1, -1, -1, -1, -1, -1, -1, -1, -1, -1, -1, -1, -1, -1, -1, -1, -1, -1, -1, -1, -1, -1, -1, -1, -1, -1, -1, -1, -1, -1, -1, -1, -1, -1, -1, -1, -1, -1, -1, -1, -1, -1, -1, -1, -1, -1, -1, -1, -1, -1, -1, -1, -1, -1, -1, -1, -1, -1, -1, -1, -1, -1, -1, -1, -1, -1, -1, -1, -1, -1, -1, -1, -1, -1, -1, -1, -1, -1, -1, -1, -1, -1, -1, -1, -1, -1, -1, -1, -1, -1, -1, -1, -1, -1, -1, -1, -1, -1, -1, -1, -1, -1, -1, -1, -1, -1, -1, -1, -1, -1, -1, -1, -1, -1, -1, -1, -1, -1, -1, -1, -1, -1, -1, -1, -1, -1, -1, -1, -1, -1, -1, -1, -1, -1, -1, -1, -1, -1, -1, -1, -1, -1, -1, -1, -1, -1, -1, -1, -1, -1, -1, -1, -1, -1, -1, -1, -1, -1, -1, -1, -1, -1, -1, -1, -1, -1, -1, -1, -1, -1, -1, -1, -1, -1, -1, -1, -1, -1, -1, -1, -1, -1, -1, -1, -1, -1, -1, -1, -1, -1, -1, -1, -1, -1, -1, -1, -1, -1, -1, -1, -1, -1, -1, -1, -1, -1, -1, -1, -1, -1, -1, -1, -1, -1, -1, -1, -1, -1, -1, -1, -1, -1, -1, -1, -1, -1, -1, -1, -1, -1, -1, -1, -1, -1, -1, -1, -1, -1, -1, -1, -1, -1, -1, -1, -1, -1, -1, -1, -1, -1, -1, -1, -1, -1, -1, -1, -1, -1, -1, -1, -1, -1, -1, -1, -1, -1, -1, -1, -1, -1, -1, -1, -1, -1, -1, -1, -1, -1, -1, -1, -1, -1, -1, -1, -1, -1, -1, -1, -1, -1, -1, -1, -1, -1, -1, -1, -1, -1, -1, -1, -1, -1, -1, -1, -1, -1, -1, -1, -1, -1, -1, -1, -1, -1, -1, -1, -1, -1, -1, -1, -1, -1, -1, -1, -1, -1, -1, -1, -1, -1, -1, -1, -1, -1, -1, -1, -1, -1, -1, -1, -1, -1, -1, -1, -1, -1, -1, -1, -1, -1, -1, -1, -1, -1, -1, -1, -1, -1, -1, -1, -1, -1, -1, -1, -1, -1, -1, -1, -1, -1, -1, -1, -1, -1, -1, -1, -1, -1, -1, -1, -1, -1, -1, -1, -1, -1, -1, -1, -1, -1, -1, -1, -1, -1, -1, -1, -1, -1, -1, -1, -1, -1, -1, -1, -1, -1, -1, -1, -1, -1, -1, -1, -1, -1, -1, -1, -1, -1, -1, -1, -1, -1, -1, -1, -1, -1, -1, -1, -1, -1, -1, -1, -1, -1, -1, -1, -1, -1, -1, -1, -1, -1, -1, -1, -1, -1, -1, -1, -1, -1, -1, -1, -1, -1, -1, -1, -1, -1, -1, -1, -1, -1, -1, -1, -1, -1, -1, -1, -1, -1, -1, -1, -1, -1, -1, -1, -1, -1, -1, -1, -1, -1, -1, -1, -1, -1, -1, -1, -1, -1, -1, -1, -1, -1, -1, -1, -1, -1, -1, -1, -1, -1, -1, -1, -1, -1, -1, -1, -1, -1, -1, -1, -1, -1, -1, -1, -1, -1, -1, -1, -1, -1, -1, -1, -1, -1, -1, -1, -1, -1, -1, -1, -1, -1, -1, -1, -1, -1, -1, -1, -1, -1, -1, -1, -1, -1, -1, -1, -1, -1, -1, -1, -1, -1, -1, -1, -1, -1, -1, -1, -1, -1, -1, -1, -1, -1, -1, -1, -1, -1, -1, -1, -1, -1, -1, -1, -1, -1, -1, -1, -1, -1, -1, -1, -1, -1, -1, -1, -1, -1, -1, -1, -1, -1, -1, -1, -1, -1, -1, -1, -1, -1, -1, -1, -1, -1, -1, -1, -1, -1, -1, -1, -1, -1, -1, -1, -1, -1, -1, -1, -1, -1, -1, -1, -1, -1, -1, -1, -1, -1, -1, -1, -1, -1, -1, -1, -1, -1, -1, -1, -1, -1, -1, -1, -1, -1, -1, -1, -1, -1, -1, -1, -1, -1, -1, -1, -1, -1, -1, -1, -1, -1, -1, -1, -1, -1, -1, -1, -1, -1, -1, -1, -1, -1, -1, -1, -1, -1, -1, -1, -1, -1, -1, -1, -1, -1, -1, -1, -1, -1, -1, -1, -1, -1, -1, -1, -1, -1, -1, -1, -1, -1, -1, -1, -1, -1, -1, -1, -1, -1, -1, -1, -1, -1, -1, -1, -1, -1, -1, -1, -1, -1, -1, -1, -1, -1, -1, -1, -1, -1, -1, -1, -1, -1, -1, -1, -1, -1, -1, -1, -1, -1, -1, -1, -1, -1, -1, -1, -1, -1, -1, -1, -1, -1, -1, -1, -1, -1, -1, -1, -1, -1, -1, -1, -1, -1, -1, -1, -1, -1, -1, -1, -1, -1, -1, -1, -1, -1, -1, -1, -1, -1, -1, -1, -1, -1, -1, -1, -1, -1, -1, -1, -1, -1, -1, -1, -1, -1, -1, -1, -1, -1, -1, -1, -1, -1, -1, -1, -1, -1, -1, -1, -1, -1, -1, -1, -1, -1, -1, -1, -1, -1, -1, -1, -1, -1, -1, -1, -1, -1, -1, -1, -1, -1, -1, -1, -1, -1, -1, -1, -1, -1, -1, -1, -1, -1, -1, -1, -1, -1, -1, -1, -1, -1, -1, -1, -1, -1, -1, -1, -1, -1, -1, -1, -1, -1, -1, -1, -1, -1, -1, -1, -1, -1, -1, -1, -1, -1, -1, -1, -1, -1, -1, -1, -1, -1, -1, -1, -1, -1, -1, -1, -1, -1, -1, -1, -1, -1, -1, -1, -1, -1, -1, -1, -1, -1, -1, -1, -1, -1, -1, -1, -1, -1, -1, -1, -1, -1, -1, -1, -1, -1, -1, -1, -1, -1, -1, -1, -1, -1, -1, -1, -1, -1, -1, -1, -1, -1, -1, -1, -1, -1, -1, -1, -1, -1, -1, -1, -1, -1, -1, -1, -1, -1, -1, -1, -1, -1, -1, -1, -1, -1, -1, -1, -1, -1, -1, -1, -1, -1, -1, -1, -1, -1, -1, -1, -1, -1, -1, -1, -1, -1, -1, -1, -1, -1, -1, -1, -1, -1, -1, -1, -1, -1, -1, -1, -1, -1, -1, -1, -1, -1, -1, -1, -1, -1, -1, -1, -1, -1, -1, -1, -1, -1, -1, -1, -1, -1, -1, -1, -1, -1, -1, -1, -1, -1, -1, -1, -1, -1, -1, -1, -1, -1, -1, -1, -1, -1, -1, -1, -1, -1, -1, -1, -1, -1, -1, -1, -1, -1, -1, -1, -1, -1, -1, -1, -1, -1, -1, -1, -1, -1, -1, -1, -1, -1, -1, -1, -1, -1, -1, -1, -1, -1, -1, -1, -1, -1, -1, -1, -1, -1, -1, -1, -1, -1, -1, -1, -1, -1, -1, -1, -1, -1, -1, -1, -1, -1, -1, -1, -1, -1, -1, -1, -1, -1, -1, -1, -1, -1, -1, -1, -1, -1, -1, -1, -1, -1, -1, -1, -1, -1, -1, -1, -1, -1, -1, -1, -1, -1, -1, -1, -1, -1, -1, -1, -1, -1, -1, -1, -1, -1, -1, -1, -1, -1, -1, -1, -1, -1, -1, -1, -1, -1, -1, -1, -1, -1, -1, -1, -1, -1, -1, -1, -1, -1, -1, -1, -1, -1, -1, -1, -1, -1, -1, -1, -1, -1, -1, -1, -1, -1, -1, -1, -1, -1, -1, -1, -1, -1, -1, -1, -1, -1, -1, -1, -1, -1, -1, -1, -1, -1, -1, -1, -1, -1, -1, -1, -1, -1, -1, -1, -1, -1, -1, -1, -1, -1, -1, -1, -1, -1, -1, -1, -1, -1, -1, -1, -1, -1, -1, -1, -1, -1, -1, -1, -1, -1, -1, -1, -1, -1, -1, -1, -1, -1, -1, -1, -1, -1, -1, -1, -1, -1, -1, -1, -1, -1, -1, -1, -1, -1, -1, -1, -1, -1, -1, -1, -1, -1, -1, -1, -1, -1, -1, -1, -1, -1, -1, -1, -1, -1, -1, -1, -1, -1, -1, -1, -1, -1, -1, -1, -1, -1, -1, -1, -1, -1, -1, -1, -1, -1, -1, -1, -1, -1, -1, -1, -1, -1, -1, -1, -1, -1, -1, -1, -1, -1, -1, -1, -1, -1, -1, -1, -1, -1, -1, -1, -1, -1, -1, -1, -1, -1, -1, -1, -1, -1, -1, -1, -1, -1, -1, -1, -1, -1, -1, -1, -1, -1, -1, -1, -1, -1, -1, -1, -1, -1, -1, -1, -1, -1, -1, -1, -1, -1, -1, -1, -1, -1, -1, -1, -1, -1, -1, -1, -1, -1, -1, -1, -1, -1, -1, -1, -1, -1, -1, -1, -1, -1, -1, -1, -1, -1, -1, -1, -1, -1, -1, -1, -1, -1, -1, -1, -1, -1, -1, -1, -1, -1, -1, -1, -1, -1, -1, -1, -1, -1, -1, -1, -1, -1, -1, -1, -1, -1, -1, -1, -1, -1, -1, -1, -1, -1, -1, -1, -1, -1, -1, -1, -1, -1, -1, -1, -1, -1, -1, -1, -1, -1, -1, -1, -1, -1, -1, -1, -1, -1, -1, -1, -1, -1, -1, -1, -1, -1, -1, -1, -1, -1, -1, -1, -1, -1, -1, -1, -1, -1, -1, -1, -1, -1, -1, -1, -1, -1, -1, -1, -1, -1, -1, -1, -1, -1, -1, -1, -1, -1, -1, -1, -1, -1, -1, -1, -1, -1, -1, -1, -1, -1, -1, -1, -1, -1, -1, -1, -1, -1, -1, -1, -1, -1, -1, -1, -1, -1, -1, -1, -1, -1, -1, -1, -1, -1, -1, -1, -1, -1, -1, -1, -1, -1, -1, -1, -1, -1, -1, -1, -1, -1, -1, -1, -1, -1, -1, -1, -1, -1, -1, -1, -1, -1, -1, -1, -1, -1, -1, -1, -1, -1, -1, -1, -1, -1, -1, -1, -1, -1, -1, -1, -1, -1, -1, -1, -1, -1, -1, -1, -1, -1, -1, -1, -1, -1, -1, -1, -1, -1, -1, -1, -1, -1, -1, -1, -1, -1, -1, -1, -1, -1, -1, -1, -1, -1, -1, -1, -1, -1, -1, -1, -1, -1, -1, -1, -1, -1, -1, -1, -1, -1, -1, -1, -1, -1, -1, -1, -1, -1, -1, -1, -1, -1, -1, -1, -1, -1, -1, -1, -1, -1, -1, -1, -1, -1, -1, -1, -1, -1, -1, -1, -1, -1, -1, -1, -1, -1, -1, -1, -1, -1, -1, -1, -1, -1, -1, -1, -1, -1, -1, -1, -1, -1, -1, -1, -1, -1, -1, -1, -1, -1, -1, -1, -1, -1, -1, -1, -1, -1, -1, -1, -1, -1, -1, -1, -1, -1, -1, -1, -1, -1, -1, -1, -1, -1, -1, -1, -1, -1, -1, -1, -1, -1, -1, -1, -1, -1, -1, -1, -1, -1, -1, -1, -1, -1, -1, -1, -1, -1, -1, -1, -1, -1, -1, -1, -1, -1, -1, -1, -1, -1, -1, -1, -1, -1, -1, -1, -1, -1, -1, -1, -1, -1, -1, -1, -1, -1, -1, -1, -1, -1, -1, -1, -1, -1, -1, -1, -1, -1, -1, -1, -1, -1, -1, -1, -1, -1, -1, -1, -1, -1, -1, -1, -1, -1, -1, -1, -1, -1, -1, -1, -1, -1, -1, -1, -1, -1, -1, -1, -1, -1, -1, -1, -1, -1, -1, -1, -1, -1, -1, -1, -1, -1, -1, -1, -1, -1, -1, -1, -1, -1, -1, -1, -1, -1, -1, -1, -1, -1, -1, -1, -1, -1, -1, -1, -1, -1, -1, -1, -1, -1, -1, -1, -1, -1, -1, -1, -1, -1, -1, -1, -1, -1, -1, -1, -1, -1, -1, -1, -1, -1, -1, -1, -1, -1, -1, -1, -1, -1, -1, -1, -1, -1, -1, -1, -1, -1, -1, -1, -1, -1, -1, -1, -1, -1, -1, -1, -1, -1, -1, -1, -1, -1, -1, -1, -1, -1, -1, -1, -1, -1, -1, -1, -1, -1, -1, -1, -1, -1, -1, -1, -1, -1, -1, -1, -1, -1, -1, -1, -1, -1, -1, -1, -1, -1, -1, -1, -1, -1, -1, -1, -1, -1, -1, -1, -1, -1, -1, -1, -1, -1, -1, -1, -1, -1, -1, -1, -1, -1, -1, -1, -1, -1, -1, -1, -1, -1, -1, -1, -1, -1, -1, -1, -1, -1, -1, -1, -1, -1, -1, -1, -1, -1, -1, -1, -1, -1, -1, -1, -1, -1, -1, -1, -1, -1, -1, -1, -1, -1, -1, -1, -1, -1, -1, -1, -1, -1, -1, -1, -1, -1, -1, -1, -1, -1, -1, -1, -1, -1, -1, -1, -1, -1, -1, -1, -1, -1, -1, -1, -1, -1, -1, -1, -1, -1, -1, -1, -1, -1, -1, -1, -1, -1, -1, -1, -1, -1, -1, -1, -1, -1, -1, -1, -1, -1, -1, -1, -1, -1, -1, -1, -1, -1, -1, -1, -1, -1, -1, -1, -1, -1, -1, -1, -1, -1, -1, -1, -1, -1, -1, -1, -1, -1, -1, -1, -1, -1, -1, -1, -1, -1, -1, -1, -1, -1, -1, -1, -1, -1, -1, -1, -1, -1, -1, -1, -1, -1, -1, -1, -1, -1, -1, -1, -1, -1, -1, -1, -1, -1, -1, -1, -1, -1, -1, -1, -1, -1, -1, -1, -1, -1, -1, -1, -1, -1, -1, -1, -1, -1, -1, -1, -1, -1, -1, -1, -1, -1, -1, -1, -1, -1, -1, -1, -1, -1, -1, -1, -1, -1, -1, -1, -1, -1, -1, -1, -1, -1, -1, -1, -1, -1, -1, -1, -1, -1, -1, -1, -1, -1, -1, -1, -1, -1, -1, -1, -1, -1, -1, -1, -1, -1, -1, -1, -1, -1, -1, -1, -1, -1, -1, -1, -1, -1, -1, -1, -1, -1, -1, -1, -1, -1, -1, -1, -1, -1, -1, -1, -1, -1, -1, -1, -1, -1, -1, -1, -1, -1, -1, -1, -1, -1, -1, -1, -1, -1, -1, -1, -1, -1, -1, -1, -1, -1, -1, -1, -1, -1, -1, -1, -1, -1, -1, -1, -1, -1, -1, -1, -1, -1, -1, -1, -1, -1, -1, -1, -1, -1, -1, -1, -1, -1, -1, -1, -1, -1, -1, -1, -1, -1, -1, -1, -1, -1, -1, -1, -1, -1, -1, -1, -1, -1, -1, -1, -1, -1, -1, -1, -1, -1, -1, -1, -1, -1, -1, -1, -1, -1, -1, -1, -1, -1, -1, -1, -1, -1, -1, -1, -1, -1, -1, -1, -1, -1, -1, -1, -1, -1, -1, -1, -1, -1, -1, -1, -1, -1, -1, -1, -1, -1, -1, -1, -1, -1, -1, -1, -1, -1, -1, -1, -1, -1, -1, -1, -1, -1, -1, -1, -1, -1, -1, -1, -1, -1, -1, -1, -1, -1, -1, -1, -1, -1, -1, -1, -1, -1, -1, -1, -1, -1, -1, -1, -1, -1, -1, -1, -1, -1, -1, -1, -1, -1, -1, -1, -1, -1, -1, -1, -1, -1, -1, -1, -1, -1, -1, -1, -1, -1, -1, -1, -1, -1, -1, -1, -1, -1, -1, -1, -1, -1, -1, -1, -1, -1, -1, -1, -1, -1, -1, -1, -1, -1, -1, -1, -1, -1, -1, -1, -1, -1, -1, -1, -1, -1, -1, -1, -1, -1, -1, -1, -1, -1, -1, -1, -1, -1, -1, -1, -1, -1, -1, -1, -1, -1, -1, -1, -1, -1, -1, -1, -1, -1, -1, -1, -1, -1, -1, -1, -1, -1, -1, -1, -1, -1, -1, -1, -1, -1, -1, -1, -1, -1, -1, -1, -1, -1, -1, -1, -1, -1, -1, -1, -1, -1, -1, -1, -1, -1, -1, -1, -1, -1, -1, -1, -1, -1, -1, -1, -1, -1, -1, -1, -1, -1, -1, -1, -1, -1, -1, -1, -1, -1, -1, -1, -1, -1, -1, -1, -1, -1, -1, -1, -1, -1, -1, -1, -1, -1, -1, -1, -1, -1, -1, -1, -1, -1, -1, -1, -1, -1, -1, -1, -1, -1, -1, -1, -1, -1, -1, -1, -1, -1, -1, -1, -1, -1, -1, -1, -1, -1, -1, -1, -1, -1, -1, -1, -1, -1, -1, -1, -1, -1, -1, -1, -1, -1, -1, -1, -1, -1, -1, -1, -1, -1, -1, -1, -1, -1, -1, -1, -1, -1, -1, -1, -1, -1, -1, -1, -1, -1, -1, -1, -1, -1, -1, -1, -1, -1, -1, -1, -1, -1, -1, -1, -1, -1, -1, -1, -1, -1, -1, -1, -1, -1, -1, -1, -1, -1, -1, -1, -1, -1, -1, -1, -1, -1, -1, -1, -1, -1, -1, -1, -1, -1, -1, -1, -1, -1, -1, -1, -1, -1, -1, -1, -1, -1, -1, -1, -1, -1, -1, -1, -1, -1, -1, -1, -1, -1, -1, -1, -1, -1, -1, -1, -1, -1, -1, -1, -1, -1, -1, -1, -1, -1, -1, -1, -1, -1, -1, -1, -1, -1, -1, -1, -1, -1, -1, -1, -1, -1, -1, -1, -1, -1, -1, -1, -1, -1, -1, -1, -1, -1, -1, -1, -1, -1, -1, -1, -1, -1, -1, -1, -1, -1, -1, -1, -1, -1, -1, -1, -1, -1, -1, -1, -1, -1, -1, -1, -1, -1, -1, -1, -1, -1, -1, -1, -1, -1, -1, -1, -1, -1, -1, -1, -1, -1, -1, -1, -1, -1, -1, -1, -1, -1, -1, -1, -1, -1, -1, -1, -1, -1, -1, -1, -1, -1, -1, -1, -1, -1, -1, -1, -1, -1, -1, -1, -1, -1, -1, -1, -1, -1, -1, -1, -1, -1, -1, -1, -1, -1, -1, -1, -1, -1, -1, -1, -1, -1, -1, -1, -1, -1, -1, -1, -1, -1, -1, -1, -1, -1, -1, -1, -1, -1, -1, -1, -1, -1, -1, -1, -1, -1, -1, -1, -1, -1, -1, -1, -1, -1, -1, -1, -1, -1, -1, -1, -1, -1, -1, -1, -1, -1, -1, -1, -1, -1, -1, -1, -1, -1, -1, -1, -1, -1, -1, -1, -1, -1, -1, -1, -1, -1, -1, -1, -1, -1, -1, -1, -1, -1, -1, -1, -1, -1, -1, -1, -1, -1, -1, -1, -1, -1, -1, -1, -1, -1, -1, -1, -1, -1, -1, -1, -1, -1, -1, -1, -1, -1, -1, -1, -1, -1, -1, -1, -1, -1, -1, -1, -1, -1, -1, -1, -1, -1, -1, -1, -1, -1, -1, -1, -1, -1, -1, -1, -1, -1, -1, -1, -1, -1, -1, -1, -1, -1, -1, -1, -1, -1, -1, -1, -1, -1, -1, -1, -1, -1, -1, -1, -1, -1, -1, -1, -1, -1, -1, -1, -1, -1, -1, -1, -1, -1, -1, -1, -1, -1, -1, -1, -1, -1, -1, -1, -1, -1, -1, -1, -1, -1, -1, -1, -1, -1, -1, -1, -1, -1, -1, -1, -1, -1, -1, -1, -1, -1, -1, -1, -1, -1, -1, -1, -1, -1, -1, -1, -1, -1, -1, -1, -1, -1, -1, -1, -1, -1, -1, -1, -1, -1, -1, -1, -1, -1, -1, -1, -1, -1, -1, -1, -1, -1, -1, -1, -1, -1, -1, -1, -1, -1, -1, -1, -1, -1, -1, -1, -1, -1, -1, -1, -1, -1, -1, -1, -1, -1, -1, -1, -1, -1, -1, -1, -1, -1, -1, -1, -1, -1, -1, -1, -1, -1, -1, -1, -1, -1, -1, -1, -1, -1, -1, -1, -1, -1, -1, -1, -1, -1, -1, -1, -1, -1, -1, -1, -1, -1, -1, -1, -1, -1, -1, -1, -1, -1, -1, -1, -1, -1, -1, -1, -1, -1, -1, -1, -1, -1, -1, -1, -1, -1, -1, -1, -1, -1, -1, -1, -1, -1, -1, -1, -1, -1, -1, -1, -1, -1, -1, -1, -1, -1, -1, -1, -1, -1, -1, -1, -1, -1, -1, -1, -1, -1, -1, -1, -1, -1, -1, -1, -1, -1, -1, -1, -1, -1, -1, -1, -1, -1, -1, -1, -1, -1, -1, -1, -1, -1, -1, -1, -1, -1, -1, -1, -1, -1, -1, -1, -1, -1, -1, -1, -1, -1, -1, -1, -1, -1, -1, -1, -1, -1, -1, -1, -1, -1, -1, -1, -1, -1, -1, -1, -1, -1, -1, -1, -1, -1, -1, -1, -1, -1, -1, -1, -1, -1, -1, -1, -1, -1, -1, -1, -1, -1, -1, -1, -1, -1, -1, -1, -1, -1, -1, -1, -1, -1, -1, -1, -1, -1, -1, -1, -1, -1, -1, -1, -1, -1, -1, -1, -1, -1, -1, -1, -1, -1, -1, -1, -1, -1, -1, -1, -1, -1, -1, -1, -1, -1, -1, -1, -1, -1, -1, -1, -1, -1, -1, -1, -1, -1, -1, -1, -1, -1, -1, -1, -1, -1, -1, -1, -1, -1, -1, -1, -1, -1, -1, -1, -1, -1, -1, -1, -1, -1, -1, -1, -1, -1, -1, -1, -1, -1, -1, -1, -1, -1, -1, -1, -1, -1, -1, -1, -1, -1, -1, -1, -1, -1, -1, -1, -1, -1, -1, -1, -1, -1, -1, -1, -1, -1, -1, -1, -1, -1, -1, -1, -1, -1, -1, -1, -1, -1, -1, -1, -1, -1, -1, -1, -1, -1, -1, -1, -1, -1, -1, -1, -1, -1, -1, -1, -1, -1, -1, -1, -1, -1, -1, -1, -1, -1, -1, -1, -1, -1, -1, -1, -1, -1, -1, -1, -1, -1, -1, -1, -1, -1, -1, -1, -1, -1, -1, -1, -1, -1, -1, -1, -1, -1, -1, -1, -1, -1, -1, -1, -1, -1, -1, -1, -1, -1, -1, -1, -1, -1, -1, -1, -1, -1, -1, -1, -1, -1, -1, -1, -1, -1, -1, -1, -1, -1, -1, -1, -1, -1, -1, -1, -1, -1, -1, -1, -1, -1, -1, -1, -1, -1, -1, -1, -1, -1, -1, -1, -1, -1, -1, -1, -1, -1, -1, -1, -1, -1, -1, -1, -1, -1, -1, -1, -1, -1, -1, -1, -1, -1, -1, -1, -1, -1, -1, -1, -1, -1, -1, -1, -1, -1, -1, -1, -1, -1, -1, -1, -1, -1, -1, -1, -1, -1, -1, -1, -1, -1, -1, -1, -1, -1, -1, -1, -1, -1, -1, -1, -1, -1, -1, -1, -1, -1, -1, -1, -1, -1, -1, -1, -1, -1, -1, -1, -1, -1, -1, -1, -1, -1, -1, -1, -1, -1, -1, -1, -1, -1, -1, -1, -1, -1, -1, -1, -1, -1, -1, -1, -1, -1, -1, -1, -1, -1, -1, -1, -1, -1, -1, -1, -1, -1, -1, -1, -1, -1, -1, -1, -1, -1, -1, -1, -1, -1, -1, -1, -1, -1, -1, -1, -1, -1, -1, -1, -1, -1, -1, -1, -1, -1, -1, -1, -1, -1, -1, -1, -1, -1, -1, -1, -1, -1, -1, -1, -1, -1, -1, -1, -1, -1, -1, -1, -1, -1, -1, -1, -1, -1, -1, -1, -1, -1, -1, -1, -1, -1, -1, -1, -1, -1, -1, -1, -1, -1, -1, -1, -1, -1, -1, -1, -1, -1, -1, -1, -1, -1, -1, -1, -1, -1, -1, -1, -1, -1, -1, -1, -1, -1, -1, -1, -1, -1, -1, -1, -1, -1, -1, -1, -1, -1, -1, -1, -1, -1, -1, -1, -1, -1, -1, -1, -1, -1, -1, -1, -1, -1, -1, -1, -1, -1, -1, -1, -1, -1, -1, -1, -1, -1, -1, -1, -1, -1, -1, -1, -1, -1, -1, -1, -1, -1, -1, -1, -1, -1, -1, -1, -1, -1, -1, -1, -1, -1, -1, -1, -1, -1, -1, -1, -1, -1, -1, -1, -1, -1, -1, -1, -1, -1, -1, -1, -1, -1, -1, -1, -1, -1, -1, -1, -1, -1, -1, -1, -1, -1, -1, -1, -1, -1, -1, -1, -1, -1, -1, -1, -1, -1, -1, -1, -1, -1, -1, -1, -1, -1, -1, -1, -1, -1, -1, -1, -1, -1, -1, -1, -1, -1, -1, -1, -1, -1, -1, -1, -1, -1, -1, -1, -1, -1, -1, -1, -1, -1, -1, -1, -1, -1, -1, -1, -1, -1, -1, -1, -1, -1, -1, -1, -1, -1, -1, -1, -1, -1, -1, -1, -1, -1, -1, -1, -1, -1, -1, -1, -1, -1, -1, -1, -1, -1, -1, -1, -1, -1, -1, -1, -1, -1, -1, -1, -1, -1, -1, -1, -1, -1, -1, -1, -1, -1, -1, -1, -1, -1, -1, -1, -1, -1, -1, -1, -1, -1, -1, -1, -1, -1, -1, -1, -1, -1, -1, -1, -1, -1, -1, -1, -1, -1, -1, -1, -1, -1, -1, -1, -1, -1, -1, -1, -1, -1, -1, -1, -1, -1, -1, -1, -1, -1, -1, -1, -1, -1, -1, -1, -1, -1, -1, -1, -1, -1, -1, -1, -1, -1, -1, -1, -1, -1, -1, -1, -1, -1, -1, -1, -1, -1, -1, -1, -1, -1, -1, -1, -1, -1, -1, -1, -1, -1, -1, -1, -1, -1, -1, -1, -1, -1, -1, -1, -1, -1, -1, -1, -1, -1, -1, -1, -1, -1, -1, -1, -1, -1, -1, -1, -1, -1, -1, -1, -1, -1, -1, -1, -1, -1, -1, -1, -1, -1, -1, -1, -1, -1, -1, -1, -1, -1, -1, -1, -1, -1, -1, -1, -1, -1, -1, -1, -1, -1, -1, -1, -1, -1, -1, -1, -1, -1, -1, -1, -1, -1, -1, -1, -1, -1, -1, -1, -1, -1, -1, -1, -1, -1, -1, -1, -1, -1, -1, -1, -1, -1, -1, -1, -1, -1, -1, -1, -1, -1, -1, -1, -1, -1, -1, -1, -1, -1, -1, -1, -1, -1, -1, -1, -1, -1, -1, -1, -1, -1, -1, -1, -1, -1, -1, -1, -1, -1, -1, -1, -1, -1, -1, -1, -1, -1, -1, -1, -1, -1, -1, -1, -1, -1, -1, -1, -1, -1, -1, -1, -1, -1, -1, -1, -1, -1, -1, -1, -1, -1, -1, -1, -1, -1, -1, -1, -1, -1, -1, -1, -1, -1, -1, -1, -1, -1, -1, -1, -1, -1, -1, -1, -1, -1, -1, -1, -1, -1, -1, -1, -1, -1, -1, -1, -1, -1, -1, -1, -1, -1, -1, -1, -1, -1, -1, -1, -1, -1, -1, -1, -1, -1, -1, -1, -1, -1, -1, -1, -1, -1, -1, -1, -1, -1, -1, -1, -1, -1, -1, -1, -1, -1, -1, -1, -1, -1, -1, -1, -1, -1, -1, -1, -1, -1, -1, -1, -1, -1, -1, -1, -1, -1, -1, -1, -1, -1, -1, -1, -1, -1, -1, -1, -1, -1, -1, -1, -1, -1, -1, -1, -1, -1, -1, -1, -1, -1, -1, -1, -1, -1, -1, -1, -1, -1, -1, -1, -1, -1, -1, -1, -1, -1, -1, -1, -1, -1, -1, -1, -1, -1, -1, -1, -1, -1, -1, -1, -1, -1, -1, -1, -1, -1, -1, -1, -1, -1, -1, -1, -1, -1, -1, -1, -1, -1, -1, -1, -1, -1, -1, -1, -1, -1, -1, -1, -1, -1, -1, -1, -1, -1, -1, -1, -1, -1, -1, -1, -1, -1, -1, -1, -1, -1, -1, -1, -1, -1, -1, -1, -1, -1, -1, -1, -1, -1, -1, -1, -1, -1, -1, -1, -1, -1, -1, -1, -1, -1, -1, -1, -1, -1, -1, -1, -1, -1, -1, -1, -1, -1, -1, -1, -1, -1, -1, -1, -1, -1, -1, -1, -1, -1, -1, -1, -1, -1, -1, -1, -1, -1, -1, -1, -1, -1, -1, -1, -1, -1, -1, -1, -1, -1, -1, -1, -1, -1, -1, -1, -1, -1, -1, -1, -1, -1, -1, -1, -1, -1, -1, -1, -1, -1, -1, -1, -1, -1, -1, -1, -1, -1, -1, -1, -1, -1, -1, -1, -1, -1, -1, -1, -1, -1, -1, -1, -1, -1, -1, -1, -1, -1, -1, -1, -1, -1, -1, -1, -1, -1, -1, -1, -1, -1, -1, -1, -1, -1, -1, -1, -1, -1, -1, -1, -1, -1, -1, -1, -1, -1, -1, -1, -1, -1, -1, -1, -1, -1, -1, -1, -1, -1, -1, -1, -1, -1, -1, -1, -1, -1, -1, -1, -1, -1, -1, -1, -1, -1, -1, -1, -1, -1, -1, -1, -1, -1, -1, -1, -1, -1, -1, -1, -1, -1, -1, -1, -1, -1, -1, -1, -1, -1, -1, -1, -1, -1, -1, -1, -1, -1, -1, -1, -1, -1, -1, -1, -1, -1, -1, -1, -1, -1, -1, -1, -1, -1, -1, -1, -1, -1, -1, -1, -1, -1, -1, -1, -1, -1, -1, -1, -1, -1, -1, -1, -1, -1, -1, -1, -1, -1, -1, -1, -1, -1, -1, -1, -1, -1, -1, -1, -1, -1, -1, -1, -1, -1, -1, -1, -1, -1, -1, -1, -1, -1, -1, -1, -1, -1, -1, -1, -1, -1, -1, -1, -1, -1, -1, -1, -1, -1, -1, -1, -1, -1, -1, -1, -1, -1, -1, -1, -1, -1, -1, -1, -1, -1, -1, -1, -1, -1, -1, -1, -1, -1, -1, -1, -1, -1, -1, -1, -1, -1, -1, -1, -1, -1, -1, -1, -1, -1, -1, -1, -1, -1, -1, -1, -1, -1, -1, -1, -1, -1, -1, -1, -1, -1, -1, -1, -1, -1, -1, -1, -1, -1, -1, -1, -1, -1, -1, -1, -1, -1, -1, -1, -1, -1, -1, -1, -1, -1, -1, -1, -1, -1, -1, -1, -1, -1, -1, -1, -1, -1, -1, -1, -1, -1, -1, -1, -1, -1, -1, -1, -1, -1, -1, -1, -1, -1, -1, -1, -1, -1, -1, -1, -1, -1, -1, -1, -1, -1, -1, -1, -1, -1, -1, -1, -1, -1, -1, -1, -1, -1, -1, -1, -1, -1, -1, -1, -1, -1, -1, -1, -1, -1, -1, -1, -1, -1, -1, -1, -1, -1, -1, -1, -1, -1, -1, -1, -1, -1, -1, -1, -1, -1, -1, -1, -1, -1, -1, -1, -1, -1, -1, -1, -1, -1, -1, -1, -1, -1, -1, -1, -1, -1, -1, -1, -1, -1, -1, -1, -1, -1, -1, -1, -1, -1, -1, -1, -1, -1, -1, -1, -1, -1, -1, -1, -1, -1, -1, -1, -1, -1, -1, -1, -1, -1, -1, -1, -1, -1, -1, -1, -1, -1, -1, -1, -1, -1, -1, -1, -1, -1, -1, -1, -1, -1, -1, -1, -1, -1, -1, -1, -1, -1, -1, -1, -1, -1, -1, -1, -1, -1, -1, -1, -1, -1, -1, -1, -1, -1, -1, -1, -1, -1, -1, -1, -1, -1, -1, -1, -1, -1, -1, -1, -1, -1, -1, -1, -1, -1, -1, -1, -1, -1, -1, -1, -1, -1, -1, -1, -1, -1, -1, -1, -1, -1, -1, -1, -1, -1, -1, -1, -1, -1, -1, -1, -1, -1, -1, -1, -1, -1, -1, -1, -1, -1, -1, -1, -1, -1, -1, -1, -1, -1, -1, -1, -1, -1, -1, -1, -1, -1, -1, -1, -1, -1, -1, -1, -1, -1, -1, -1, -1, -1, -1, -1, -1, -1, -1, -1, -1, -1, -1, -1, -1, -1, -1, -1, -1, -1, -1, -1, -1, -1, -1, -1, -1, -1, -1, -1, -1, -1, -1, -1, -1, -1, -1, -1, -1, -1, -1, -1, -1, -1, -1, -1, -1, -1, -1, -1, -1, -1, -1, -1, -1, -1, -1, -1, -1, -1, -1, -1, -1, -1, -1, -1, -1, -1, -1, -1, -1, -1, -1, -1, -1, -1, -1, -1, -1, -1, -1, -1, -1, -1, -1, -1, -1, -1, -1, -1, -1, -1, -1, -1, -1, -1, -1, -1, -1, -1, -1, -1, -1, -1, -1, -1, -1, -1, -1, -1, -1, -1, -1, -1, -1, -1, -1, -1, -1, -1, -1, -1, -1, -1, -1, -1, -1, -1, -1, -1, -1, -1, -1, -1, -1, -1, -1, -1, -1, -1, -1, -1, -1, -1, -1, -1, -1, -1, -1, -1, -1, -1, -1, -1, -1, -1, -1, -1, -1, -1, -1, -1, -1, -1, -1, -1, -1, -1, -1, -1, -1, -1, -1, -1, -1, -1, -1, -1, -1, -1, -1, -1, -1, -1, -1, -1, -1, -1, -1, -1, -1, -1, -1, -1, -1, -1, -1, -1, -1, -1, -1, -1, -1, -1, -1, -1, -1, -1, -1, -1, -1, -1, -1, -1, -1, -1, -1, -1, -1, -1, -1, -1, -1, -1, -1, -1, -1, -1, -1, -1, -1, -1, -1, -1, -1, -1, -1, -1, -1, -1, -1, -1, -1, -1, -1, -1, -1, -1, -1, -1, -1, -1, -1, -1, -1, -1, -1, -1, -1, -1, -1, -1, -1, -1, -1, -1, -1, -1, -1, -1, -1, -1, -1, -1, -1, -1, -1, -1, -1, -1, -1, -1, -1, -1, -1, -1, -1, -1, -1, -1, -1, -1, -1, -1, -1, -1, -1, -1, -1, -1, -1, -1, -1, -1, -1, -1, -1, -1, -1, -1, -1, -1, -1, -1, -1, -1, -1, -1, -1, -1, -1, -1, -1, -1, -1, -1, -1, -1, -1, -1, -1, -1, -1, -1, -1, -1, -1, -1, -1, -1, -1, -1, -1, -1, -1, -1, -1, -1, -1, -1, -1, -1, -1, -1, -1, -1, -1, -1, -1, -1, -1, -1, -1, -1, -1, -1, -1, -1, -1, -1, -1, -1, -1, -1, -1, -1, -1, -1, -1, -1, -1, -1, -1, -1, -1, -1, -1, -1, -1, -1, -1, -1, -1, -1, -1, -1, -1, -1, -1, -1, -1, -1, -1, -1, -1, -1, -1, -1, -1, -1, -1, -1, -1, -1, -1, -1, -1, -1, -1, -1, -1, -1, -1, -1, -1, -1, -1, -1, -1, -1, -1, -1, -1, -1, -1, -1, -1, -1, -1, -1, -1, -1, -1, -1, -1, -1, -1, -1, -1, -1, -1, -1, -1, -1, -1, -1, -1, -1, -1, -1, -1, -1, -1, -1, -1, -1, -1, -1, -1, -1, -1, -1, -1, -1, -1, -1, -1, -1, -1, -1, -1, -1, -1, -1, -1, -1, -1, -1, -1, -1, -1, -1, -1, -1, -1, -1, -1, -1, -1, -1, -1, -1, -1, -1, -1, -1, -1, -1, -1, -1, -1, -1, -1, -1, -1, -1, -1, -1, -1, -1, -1, -1, -1, -1, -1, -1, -1, -1, -1, -1, -1, -1, -1, -1, -1, -1, -1, -1, -1, -1, -1, -1, -1, -1, -1, -1, -1, -1, -1, -1, -1, -1, -1, -1, -1, -1, -1, -1, -1, -1, -1, -1, -1, -1, -1, -1, -1, -1, -1, -1, -1, -1, -1, -1, -1, -1, -1, -1, -1, -1, -1, -1, -1, -1, -1, -1, -1, -1, -1, -1, -1, -1, -1, -1, -1, -1, -1, -1, -1, -1, -1, -1, -1, -1, -1, -1, -1, -1, -1, -1, -1, -1, -1, -1, -1, -1, -1, -1, -1, -1, -1, -1, -1, -1, -1, -1, -1, -1, -1, -1, -1, -1, -1, -1, -1, -1, -1, -1, -1, -1, -1, -1, -1, -1, -1, -1, -1, -1, -1, -1, -1, -1, -1, -1, -1, -1, -1, -1, -1, -1, -1, -1, -1, -1, -1, -1, -1, -1, -1, -1, -1, -1, -1, -1, -1, -1, -1, -1, -1, -1, -1, -1, -1, -1, -1, -1, -1, -1, -1, -1, -1, -1, -1, -1, -1, -1, -1, -1, -1, -1, -1, -1, -1, -1, -1, -1, -1, -1, -1, -1, -1, -1, -1, -1, -1, -1, -1, -1, -1, -1, -1, -1, -1, -1, -1, -1, -1, -1, -1, -1, -1, -1, -1, -1, -1, -1, -1, -1, -1, -1, -1, -1, -1, -1, -1, -1, -1, -1, -1, -1, -1, -1, -1, -1, -1, -1, -1, -1, -1, -1, -1, -1, -1, -1, -1, -1, -1, -1, -1, -1, -1, -1, -1, -1, -1, -1, -1, -1, -1, -1, -1, -1, -1, -1, -1, -1, -1, -1, -1, -1, -1, -1, -1, -1, -1, -1, -1, -1, -1, -1, -1, -1, -1, -1, -1, -1, -1, -1, -1, -1, -1, -1, -1, -1, -1, -1, -1, -1, -1, -1, -1, -1, -1, -1, -1, -1, -1, -1, -1, -1, -1, -1, -1, -1, -1, -1, -1, -1, -1, -1, -1, -1, -1, -1, -1, -1, -1, -1, -1, -1, -1, -1, -1, -1, -1, -1, -1, -1, -1, -1, -1, -1, -1, -1, -1, -1, -1, -1, -1, -1, -1, -1, -1, -1, -1, -1, -1, -1, -1, -1, -1, -1, -1, -1, -1, -1, -1, -1, -1, -1, -1, -1, -1, -1, -1, -1, -1, -1, -1, -1, -1, -1, -1, -1, -1, -1, -1, -1, -1, -1, -1, -1, -1, -1, -1, -1, -1, -1, -1, -1, -1, -1, -1, -1, -1, -1, -1, -1, -1, -1, -1, -1, -1, -1, -1, -1, -1, -1, -1, -1, -1, -1, -1, -1, -1, -1, -1, -1, -1, -1, -1, -1, -1, -1, -1, -1, -1, -1, -1, -1, -1, -1, -1, -1, -1, -1, -1, -1, -1, -1, -1, -1, -1, -1, -1, -1, -1, -1, -1, -1, -1, -1, -1, -1, -1, -1, -1, -1, -1, -1, -1, -1, -1, -1, -1, -1, -1, -1, -1, -1, -1, -1, -1, -1, -1, -1, -1, -1, -1, -1, -1, -1, -1, -1, -1, -1, -1, -1, -1, -1, -1, -1, -1, -1, -1, -1, -1, -1, -1, -1, -1, -1, -1, -1, -1, -1, -1, -1, -1, -1, -1, -1, -1, -1, -1, -1, -1, -1, -1, -1, -1, -1, -1, -1, -1, -1, -1, -1, -1, -1, -1, -1, -1, -1, -1, -1, -1, -1, -1, -1, -1, -1, -1, -1, -1, -1, -1, -1, -1, -1, -1, -1, -1, -1, -1, -1, -1, -1, -1, -1, -1, -1, -1, -1, -1, -1, -1, -1, -1, -1, -1, -1, -1, -1, -1, -1, -1, -1, -1, -1, -1, -1, -1, -1, -1, -1, -1, -1, -1, -1, -1, -1, -1, -1, -1, -1, -1, -1, -1, -1, -1, -1, -1, -1, -1, -1, -1, -1, -1, -1, -1, -1, -1, -1, -1, -1, -1, -1, -1, -1, -1, -1, -1, -1, -1, -1, -1, -1, -1, -1, -1, -1, -1, -1, -1, -1, -1, -1, -1, -1, -1, -1, -1, -1, -1, -1, -1, -1, -1, -1, -1, -1, -1, -1, -1, -1, -1, -1, -1, -1, -1, -1, -1, -1, -1, -1, -1, -1, -1, -1, -1, -1, -1, -1, -1, -1, -1, -1, -1, -1, -1, -1, -1, -1, -1, -1, -1, -1, -1, -1, -1, -1, -1, -1, -1, -1, -1, -1, -1, -1, -1, -1, -1, -1, -1, -1, -1, -1, -1, -1, -1, -1, -1, -1, -1, -1, -1, -1, -1, -1, -1, -1, -1, -1, -1, -1, -1, -1, -1, -1, -1, -1, -1, -1, -1, -1, -1, -1, -1, -1, -1, -1, -1, -1, -1, -1, -1, -1, -1, -1, -1, -1, -1, -1, -1, -1, -1, -1, -1, -1, -1, -1, -1, -1, -1, -1, -1, -1, -1, -1, -1, -1, -1, -1, -1, -1, -1, -1, -1, -1, -1, -1, -1, -1, -1, -1, -1, -1, -1, -1, -1, -1, -1, -1, -1, -1, -1, -1, -1, -1, -1, -1, -1, -1, -1, -1, -1, -1, -1, -1, -1, -1, -1, -1, -1, -1, -1, -1, -1, -1, -1, -1, -1, -1, -1, -1, -1, -1, -1, -1, -1, -1, -1, -1, -1, -1, -1, -1, -1, -1, -1, -1, -1, -1, -1, -1, -1, -1, -1, -1, -1, -1, -1, -1, -1, -1, -1, -1, -1, -1, -1, -1, -1, -1, -1, -1, -1, -1, -1, -1, -1, -1, -1, -1, -1, -1, -1, -1, -1, -1, -1, -1, -1, -1, -1, -1, -1, -1, -1, -1, -1, -1, -1, -1, -1, -1, -1, -1, -1, -1, -1, -1, -1, -1, -1, -1, -1, -1, -1, -1, -1, -1, -1, -1, -1, -1, -1, -1, -1, -1, -1, -1, -1, -1, -1, -1, -1, -1, -1, -1, -1, -1, -1, -1, -1, -1, -1, -1, -1, -1, -1, -1, -1, -1, -1, -1, -1, -1, -1, -1, -1, -1, -1, -1, -1, -1, -1, -1, -1, -1, -1, -1, -1, -1, -1, -1, -1, -1, -1, -1, -1, -1, -1, -1, -1, -1, -1, -1, -1, -1, -1, -1, -1, -1, -1, -1, -1, -1, -1, -1, -1, -1, -1, -1, -1, -1, -1, -1, -1, -1, -1, -1, -1, -1, -1, -1, -1, -1, -1, -1, -1, -1, -1, -1, -1, -1, -1, -1, -1, -1, -1, -1, -1, -1, -1, -1, -1, -1, -1, -1, -1, -1, -1, -1, -1, -1, -1, -1, -1, -1, -1, -1, -1, -1, -1, -1, -1, -1, -1, -1, -1, -1, -1, -1, -1, -1, -1, -1, -1, -1, -1, -1, -1, -1, -1, -1, -1, -1, -1, -1, -1, -1, -1, -1, -1, -1, -1, -1, -1, -1, -1, -1, -1, -1, -1, -1, -1, -1, -1, -1, -1, -1, -1, -1, -1, -1, -1, -1, -1, -1, -1, -1, -1, -1, -1, -1, -1, -1, -1, -1, -1, -1, -1, -1, -1, -1, -1, -1, -1, -1, -1, -1, -1, -1, -1, -1, -1, -1, -1, -1, -1, -1, -1, -1, -1, -1, -1, -1, -1, -1, -1, -1, -1, -1, -1, -1, -1, -1, -1, -1, -1, -1, -1, -1, -1, -1, -1, -1, -1, -1, -1, -1, -1, -1, -1, -1, -1, -1, -1, -1, -1, -1, -1, -1, -1, -1, -1, -1, -1, -1, -1, -1, -1, -1, -1, -1, -1, -1, -1, -1, -1, -1, -1, -1, -1, -1, -1, -1, -1, -1, -1, -1, -1, -1, -1, -1, -1, -1, -1, -1, -1, -1, -1, -1, -1, -1, -1, -1, -1, -1, -1, -1, -1, -1, -1, -1, -1, -1, -1, -1, -1, -1, -1, -1, -1, -1, -1, -1, -1, -1, -1, -1, -1, -1, -1, -1, -1, -1, -1, -1, -1, -1, -1, -1, -1, -1, -1, -1, -1, -1, -1, -1, -1, -1, -1, -1, -1, -1, -1, -1, -1, -1, -1, -1, -1, -1, -1, -1, -1, -1, -1, -1, -1, -1, -1, -1, -1, -1, -1, -1, -1, -1, -1, -1, -1, -1, -1, -1, -1, -1, -1, -1, -1, -1, -1, -1, -1, -1, -1, -1, -1, -1, -1, -1, -1, -1, -1, -1, -1, -1, -1, -1, -1, -1, -1, -1, -1, -1, -1, -1, -1, -1, -1, -1, -1, -1, -1, -1, -1, -1, -1, -1, -1, -1, -1, -1, -1, -1, -1, -1, -1, -1, -1, -1, -1, -1, -1, -1, -1, -1, -1, -1, -1, -1, -1, -1, -1, -1, -1, -1, -1, -1, -1, -1, -1, -1, -1, -1, -1, -1, -1, -1, -1, -1, -1, -1, -1, -1, -1, -1, -1, -1, -1, -1, -1, -1, -1, -1, -1, -1, -1, -1, -1, -1, -1, -1, -1, -1, -1, -1, -1, -1, -1, -1, -1, -1, -1, -1, -1, -1, -1, -1, -1, -1, -1, -1, -1, -1, -1, -1, -1, -1, -1, -1, -1, -1, -1, -1, -1, -1, -1, -1, -1, -1, -1, -1, -1, -1, -1, -1, -1, -1, -1, -1, -1, -1, -1, -1, -1, -1, -1, -1, -1, -1, -1, -1, -1, -1, -1, -1, -1, -1, -1, -1, -1, -1, -1, -1, -1, -1, -1, -1, -1, -1, -1, -1, -1, -1, -1, -1, -1, -1, -1, -1, -1, -1, -1, -1, -1, -1, -1, -1, -1, -1, -1, -1, -1, -1, -1, -1, -1, -1, -1, -1, -1, -1, -1, -1, -1, -1, -1, -1, -1, -1, -1, -1, -1, -1, -1, -1, -1, -1, -1, -1, -1, -1, -1, -1, -1, -1, -1, -1, -1, -1, -1, -1, -1, -1, -1, -1, -1, 5, 0, 11, 18, 4, 0, 21, 0, 8, 19, 0, 21, 14, 8, 17, 0, 21, 0, 8, 18, 0, 21, 14, 13, 18, 0, 24, 0, 13, 19, 0, 21, 8, 4, 25, 0, 8, 4, 13, 19, 0, 20, 17, 4, 25, 0, 24, 14, 13, 18, 4, 20, 18, 18, 4, 4, 20, 12, 4, 18, 4, 20, 19, 4, 18, 5, 0, 8, 17, 4, 4, 19, 0, 8, 19, 4, 19, 0, 13, 19, 18, 4, 17, 0, 8, 18, 4, 17, 4, 25, 4, 19, 8, 4, 25, 18, 4, 17, 0, 18, 18, 14, 24, 4, 25, 5, 20, 12, 4, 18, 5, 20, 18, 18, 4, 5, 20, 19, 4, 18, 5, 4, 17, 0, 8, 5, 0, 18, 18, 4, 5, 0, 8, 19, 4, 5, 4, 17, 0, 18, 5, 0, 8, 19, 18, 5, 4, 17, 4, 25, 5, 8, 12, 4, 18, 5, 8, 18, 18, 4, 5, 8, 19, 4, 18, 0, 8, 11, 11, 4, 0, 11, 11, 4, 4, 8, 17, 0, 8, 19, 0, 11, 11, 4, 18, 8, 17, 0, 8, 18, 8, 17, 14, 13, 18, 0, 11, 11, 0, 8, 8, 17, 14, 13, 19, 8, 17, 8, 4, 25, 0, 11, 11, 0, 19, 0, 11, 11, 0, 18, 3, 8, 19, 4, 18, 3, 8, 17, 0, 8, 3, 8, 17, 0, 18, 3, 8, 17, 4, 25, 3, 8, 18, 4, 18, 3, 8, 12, 4, 18, 2, 4, 19, 19, 4, 15, 20, 12, 4, 18, 15, 20, 18, 18, 4, 15, 20, 19, 4, 18, 21, 14, 20, 11, 20, 19, 14, 20, 19, 4, 18, 0, 21, 4, 25, 21, 14, 24, 4, 25, 21, 4, 17, 17, 0, 18, 0, 2, 7, 4, 21, 8, 12, 4, 18, 18, 20, 12, 4, 18, 18, 20, 18, 18, 4, 0, 11, 14, 17, 18, 0, 20, 18, 18, 8, 21, 8, 4, 13, 18, 2, 7, 14, 18, 4, 21, 4, 13, 8, 17, 21, 8, 4, 13, 19, 3, 4, 21, 4, 25, 21, 14, 19, 17, 4, 19, 4, 12, 15, 18, 21, 4, 13, 4, 25, 3, 4, 21, 17, 0, 3, 14, 8, 21, 4, 3, 20, 12, 4, 18, 3, 20, 18, 18, 4, 21, 4, 13, 20, 4, 21, 4, 13, 20, 18, 7, 14, 12, 12, 4, 15, 4, 19, 8, 19, 2, 17, 14, 8, 18, 15, 17, 4, 13, 3, 15, 0, 17, 11, 4, 5, 4, 12, 12, 4, 15, 17, 8, 18, 4, 13, 14, 19, 17, 4, 9, 14, 20, 17, 18, 1, 14, 13, 13, 4, 12, 14, 13, 3, 4, 15, 0, 18, 18, 4, 15, 0, 17, 11, 0, 15, 4, 13, 18, 4, 18, 20, 8, 21, 4, 0, 20, 19, 17, 4, 5, 0, 11, 11, 20, 2, 17, 14, 8, 19, 6, 17, 0, 13, 3, 15, 0, 18, 18, 0, 2, 17, 14, 8, 4, 2, 17, 20, 4, 18, 0, 8, 12, 4, 18, 0, 8, 12, 4, 17, 0, 8, 12, 4, 25, 7, 4, 20, 17, 4, 3, 14, 13, 13, 4, 5, 8, 11, 11, 4, 0, 8, 12, 4, 4, 18, 4, 20, 11, 4, 0, 8, 12, 0, 19, 0, 8, 12, 0, 8, 15, 4, 13, 18, 0, 4, 13, 19, 17, 4, 12, 14, 8, 13, 18, 12, 0, 8, 13, 18, 11, 4, 20, 17, 18, 3, 14, 13, 13, 0, 12, 4, 19, 19, 4, 21, 14, 8, 11, 0, 12, 8, 18, 4, 18, 12, 8, 4, 20, 23, 12, 8, 12, 4, 18, 19, 17, 14, 8, 18, 4, 11, 11, 4, 18, 18, 4, 20, 11, 18, 17, 4, 18, 19, 4, 2, 14, 12, 12, 4, 17, 4, 18, 19, 0, 1, 4, 11, 11, 4, 15, 14, 17, 19, 4, 2, 14, 13, 13, 20, 0, 12, 14, 20, 17, 18, 14, 17, 19, 8, 0, 18, 18, 4, 25, 15, 4, 17, 4, 18, 14, 4, 8, 11, 18, 15, 0, 17, 19, 4, 9, 20, 18, 19, 4, 2, 14, 20, 15, 18, 9, 4, 20, 13, 4, 15, 11, 0, 2, 4, 12, 4, 17, 4, 18, 19, 4, 19, 4, 18, 2, 14, 17, 15, 18, 19, 4, 13, 8, 17, 19, 4, 17, 17, 4, 19, 8, 4, 13, 19, 13, 20, 8, 19, 18, 1, 4, 0, 20, 23, 4, 13, 5, 8, 13, 19, 8, 4, 13, 18, 21, 17, 0, 8, 4, 3, 8, 4, 20, 23, 19, 4, 13, 4, 25, 12, 4, 20, 17, 19, 12, 0, 12, 0, 13, 18, 20, 17, 4, 18, 12, 4, 20, 17, 18, 0, 8, 13, 18, 8, 12, 4, 12, 4, 18, 12, 4, 20, 17, 4, 12, 0, 19, 8, 13, 15, 11, 0, 8, 19, 21, 17, 0, 8, 18, 0, 8, 3, 4, 17, 19, 4, 13, 20, 4, 15, 4, 17, 3, 20, 9, 14, 20, 4, 17, 19, 4, 13, 20, 18, 21, 8, 4, 20, 23, 2, 14, 4, 20, 17, 21, 8, 11, 11, 4, 18, 14, 8, 17, 18, 15, 4, 8, 13, 4, 14, 20, 0, 8, 18, 5, 8, 13, 8, 17, 2, 4, 11, 20, 8, 14, 20, 21, 17, 4, 19, 20, 4, 17, 0, 19, 20, 4, 13, 19, 19, 20, 0, 8, 19, 19, 20, 4, 4, 18, 19, 20, 14, 13, 18, 19, 20, 0, 8, 18, 19, 20, 8, 4, 25, 18, 20, 8, 19, 4, 17, 4, 13, 3, 18, 5, 8, 13, 8, 19, 17, 4, 13, 3, 20, 5, 17, 4, 17, 4, 19, 17, 0, 8, 13, 15, 8, 4, 3, 18, 19, 8, 17, 4, 17, 17, 4, 13, 3, 4, 21, 8, 21, 4, 25, 15, 4, 17, 3, 18, 21, 8, 21, 17, 0, 5, 0, 2, 14, 13, 21, 4, 2, 20, 4, 21, 4, 2, 20, 19, 21, 4, 2, 20, 18, 19, 14, 12, 1, 4, 2, 14, 19, 4, 18, 19, 0, 1, 11, 4, 0, 13, 13, 4, 4, 9, 14, 20, 4, 25, 4, 13, 21, 8, 4, 15, 4, 17, 3, 4, 0, 18, 18, 8, 18, 0, 8, 3, 4, 25, 9, 14, 20, 4, 4, 9, 14, 20, 0, 8, 9, 14, 20, 4, 18, 9, 14, 20, 0, 19, 4, 13, 19, 17, 0, 3, 14, 20, 19, 4, 19, 14, 12, 1, 0, 12, 0, 13, 6, 4, 15, 4, 20, 17, 18, 4, 2, 17, 8, 19, 8, 3, 4, 4, 18, 12, 4, 17, 2, 8, 12, 14, 13, 19, 4, 0, 8, 3, 4, 4, 17, 14, 20, 19, 4, 0, 8, 3, 4, 18, 0, 8, 3, 0, 8, 0, 8, 3, 0, 19, 19, 8, 17, 4, 25, 15, 11, 4, 8, 13, 2, 0, 20, 18, 4, 19, 8, 17, 4, 18, 19, 8, 17, 4, 4, 15, 14, 17, 19, 0, 13, 14, 8, 17, 4, 19, 8, 17, 0, 8, 19, 8, 17, 0, 19, 19, 8, 17, 0, 18, 18, 14, 17, 19, 4, 15, 0, 24, 4, 17, 15, 14, 18, 4, 17, 15, 11, 0, 8, 18, 0, 18, 18, 8, 19, 14, 17, 3, 17, 4, 11, 0, 1, 0, 18, 1, 11, 0, 13, 2, 6, 4, 13, 17, 4, 21, 14, 8, 2, 8, 11, 8, 21, 17, 4, 13, 14, 8, 17, 18, 21, 4, 17, 17, 4, 15, 8, 4, 2, 4, 3, 14, 17, 12, 8, 12, 14, 13, 19, 0, 0, 20, 2, 20, 13, 4, 2, 17, 8, 18, 11, 14, 13, 6, 18, 2, 7, 8, 4, 13, 4, 2, 14, 11, 4, 18, 0, 11, 20, 19, 15, 14, 18, 4, 4, 0, 15, 17, 4, 18, 3, 14, 17, 12, 4, 6, 0, 17, 3, 4, 15, 14, 18, 4, 25, 17, 14, 20, 6, 4, 15, 0, 17, 19, 18, 15, 0, 17, 20, 19, 1, 20, 21, 4, 25, 15, 14, 18, 4, 18, 18, 0, 11, 11, 4, 5, 14, 20, 19, 20, 15, 14, 18, 0, 8, 11, 4, 21, 4, 25, 11, 8, 18, 4, 25, 15, 14, 18, 0, 19, 11, 4, 21, 4, 4, 15, 14, 18, 0, 18, 1, 14, 8, 21, 4, 1, 14, 8, 17, 0, 9, 4, 19, 19, 4, 18, 14, 4, 20, 17, 11, 4, 21, 0, 8, 5, 14, 11, 11, 4, 1, 20, 12, 4, 18, 11, 4, 21, 4, 18, 1, 20, 18, 18, 4, 19, 17, 20, 2, 18, 19, 14, 20, 19, 18, 19, 24, 15, 4, 18, 11, 8, 17, 0, 8, 11, 8, 17, 0, 18, 6, 0, 17, 3, 0, 11, 8, 18, 4, 18, 11, 4, 21, 0, 19, 11, 8, 17, 4, 25, 11, 20, 12, 4, 18, 6, 0, 6, 13, 4, 4, 5, 5, 4, 19, 15, 0, 24, 4, 25, 5, 14, 20, 19, 4, 15, 0, 24, 4, 4, 15, 0, 24, 4, 18, 15, 0, 17, 20, 4, 15, 0, 17, 20, 18, 15, 0, 24, 0, 8, 15, 0, 24, 0, 19, 1, 14, 20, 19, 18, 9, 4, 19, 4, 4, 19, 14, 20, 17, 18, 9, 4, 19, 4, 25, 12, 4, 17, 3, 4, 11, 8, 1, 17, 4, 9, 4, 19, 4, 18, 9, 4, 19, 0, 8, 11, 8, 4, 20, 23, 15, 17, 4, 19, 4, 9, 4, 19, 0, 19, 9, 4, 19, 0, 18, 15, 17, 4, 19, 18, 7, 14, 19, 4, 11, 6, 4, 18, 19, 4, 18, 0, 13, 6, 18, 0, 17, 12, 4, 18, 5, 0, 20, 19, 4, 14, 12, 1, 17, 4, 17, 8, 0, 8, 19, 5, 4, 17, 12, 4, 14, 13, 2, 11, 4, 9, 14, 11, 8, 4, 3, 4, 1, 20, 19, 5, 14, 17, 12, 4, 6, 0, 6, 13, 0, 15, 0, 17, 12, 8, 5, 17, 14, 8, 3, 15, 7, 14, 19, 14, 17, 8, 4, 13, 19, 17, 8, 0, 8, 18, 15, 17, 8, 4, 17, 3, 17, 14, 11, 4, 17, 8, 14, 13, 18, 17, 8, 17, 0, 8, 3, 14, 8, 6, 19, 17, 8, 17, 0, 18, 17, 8, 17, 4, 25, 17, 8, 12, 4, 18, 17, 8, 8, 4, 25, 5, 4, 17, 12, 0, 2, 7, 4, 5, 18, 2, 11, 0, 8, 17, 14, 3, 4, 20, 17, 2, 14, 20, 17, 19, 2, 8, 4, 11, 18, 11, 8, 4, 20, 18, 6, 17, 0, 21, 4, 2, 0, 2, 7, 4, 8, 12, 0, 6, 4, 17, 4, 2, 20, 19, 2, 14, 20, 17, 20, 2, 14, 20, 17, 18, 2, 17, 8, 4, 17, 9, 0, 12, 1, 4, 18, 8, 6, 13, 4, 18, 0, 20, 21, 4, 17, 4, 2, 20, 18, 15, 17, 8, 4, 25, 17, 4, 2, 20, 4, 1, 0, 19, 19, 20, 11, 8, 6, 13, 4, 15, 17, 8, 4, 18, 21, 14, 11, 4, 17, 15, 17, 8, 0, 8, 15, 17, 8, 4, 4, 15, 17, 8, 0, 19, 0, 6, 8, 17, 0, 21, 0, 11, 20, 19, 21, 0, 11, 4, 25, 18, 2, 4, 13, 4, 18, 20, 5, 5, 8, 2, 0, 17, 19, 4, 21, 0, 11, 20, 4, 2, 14, 20, 17, 4, 5, 8, 11, 12, 18, 17, 4, 12, 8, 18, 0, 17, 1, 17, 4, 5, 0, 2, 4, 18, 2, 7, 4, 17, 4, 12, 0, 17, 8, 18, 4, 19, 0, 19, 18, 1, 14, 20, 6, 4, 17, 4, 21, 4, 18, 12, 8, 11, 11, 4, 2, 0, 2, 7, 0, 1, 14, 8, 19, 4, 5, 17, 14, 13, 19, 7, 0, 20, 19, 4, 18, 4, 11, 14, 13, 2, 7, 4, 17, 18, 17, 4, 12, 8, 19, 0, 3, 14, 17, 4, 19, 0, 13, 19, 4, 17, 4, 12, 4, 19, 3, 4, 13, 19, 18, 7, 14, 13, 19, 4, 2, 0, 5, 4, 18, 21, 8, 13, 6, 19, 2, 17, 8, 4, 25, 9, 14, 11, 8, 18, 2, 17, 8, 4, 18, 2, 17, 8, 0, 8, 0, 21, 8, 14, 13, 19, 0, 8, 17, 4, 0, 12, 4, 13, 4, 2, 17, 8, 0, 19, 2, 17, 8, 4, 4, 3, 17, 14, 8, 19, 1, 0, 18, 18, 4, 5, 11, 8, 2, 18, 1, 11, 4, 20, 4, 2, 14, 20, 15, 4, 21, 4, 13, 3, 20, 3, 20, 17, 4, 18, 18, 0, 20, 21, 0, 1, 14, 17, 3, 18, 5, 14, 17, 19, 4, 21, 14, 11, 4, 4, 1, 0, 11, 11, 4, 2, 14, 8, 13, 18, 19, 4, 11, 11, 4, 21, 14, 11, 4, 18, 15, 14, 2, 7, 4, 18, 14, 20, 17, 8, 3, 0, 12, 4, 18, 5, 11, 4, 20, 17, 12, 0, 17, 8, 4, 21, 14, 11, 4, 25, 2, 7, 14, 8, 23, 21, 14, 11, 0, 8, 21, 4, 13, 3, 18, 21, 14, 11, 0, 19, 0, 12, 20, 18, 4, 1, 11, 4, 20, 18, 18, 20, 15, 4, 17, 15, 11, 20, 8, 4, 2, 4, 18, 18, 4, 15, 14, 18, 19, 4, 21, 4, 13, 19, 18, 2, 14, 20, 15, 0, 2, 0, 18, 18, 4, 17, 4, 21, 20, 4, 0, 15, 15, 4, 11, 12, 0, 17, 8, 0, 17, 4, 21, 20, 18, 18, 0, 11, 4, 18, 21, 4, 13, 3, 4, 17, 4, 21, 4, 17, 7, 0, 20, 19, 18, 19, 0, 8, 18, 4, 19, 0, 8, 17, 0, 18, 0, 20, 19, 4, 19, 20, 12, 4, 18, 12, 4, 13, 19, 8, 2, 7, 0, 20, 3, 15, 4, 0, 20, 23, 6, 11, 0, 2, 4, 5, 4, 19, 4, 18, 18, 4, 17, 17, 4, 3, 4, 18, 8, 17, 4, 19, 17, 4, 18, 0, 12, 4, 13, 0, 12, 4, 13, 4, 17, 11, 0, 2, 7, 4, 11, 4, 21, 17, 4, 18, 0, 13, 19, 4, 11, 0, 13, 2, 4, 11, 4, 6, 4, 17, 17, 14, 1, 4, 18, 11, 0, 13, 2, 0, 2, 7, 0, 19, 18, 19, 4, 13, 3, 20, 14, 18, 0, 8, 19, 18, 0, 20, 19, 0, 11, 0, 2, 7, 0, 7, 8, 21, 4, 17, 0, 6, 4, 13, 19, 1, 0, 13, 3, 4, 5, 14, 17, 19, 18, 5, 14, 17, 4, 19, 15, 8, 19, 8, 4, 6, 14, 18, 18, 4, 5, 14, 20, 11, 4, 7, 4, 17, 1, 4, 0, 12, 20, 18, 0, 1, 17, 20, 11, 4, 2, 0, 11, 12, 4, 21, 8, 3, 4, 18, 14, 1, 9, 4, 19, 1, 4, 1, 4, 18, 2, 4, 18, 18, 0, 18, 0, 11, 14, 13, 14, 18, 0, 8, 18, 2, 17, 8, 12, 4, 2, 0, 18, 18, 0, 17, 4, 21, 4, 25, 6, 20, 4, 17, 4, 17, 0, 3, 8, 14, 4, 13, 5, 4, 17, 19, 4, 13, 3, 18, 19, 4, 13, 19, 4, 2, 7, 0, 12, 15, 17, 8, 17, 4, 18, 17, 4, 21, 4, 4, 14, 18, 4, 13, 19, 15, 11, 0, 6, 4, 17, 4, 21, 0, 8, 4, 19, 0, 6, 4, 14, 18, 0, 13, 19, 17, 4, 21, 0, 19, 21, 4, 17, 19, 4, 17, 4, 15, 0, 18, 12, 4, 13, 4, 4, 14, 18, 4, 17, 0, 17, 14, 20, 11, 4, 15, 14, 8, 3, 18, 19, 17, 14, 20, 18, 14, 18, 14, 13, 18, 12, 14, 17, 19, 4, 14, 18, 8, 4, 25, 19, 4, 13, 3, 4, 14, 18, 4, 4, 18, 9, 14, 8, 4, 18, 9, 20, 17, 4, 17, 15, 17, 4, 21, 20, 12, 4, 13, 4, 18, 2, 0, 12, 15, 18, 5, 17, 0, 8, 18, 12, 4, 13, 4, 25, 3, 0, 13, 18, 4, 5, 20, 12, 4, 17, 12, 4, 13, 19, 4, 7, 4, 17, 14, 18, 0, 3, 14, 17, 0, 17, 14, 20, 11, 0, 12, 4, 13, 0, 8, 12, 4, 13, 0, 19, 9, 20, 17, 4, 25, 5, 8, 11, 4, 17, 12, 14, 17, 19, 18, 17, 8, 2, 7, 4, 9, 20, 17, 4, 18, 13, 4, 8, 6, 4, 3, 0, 13, 18, 0, 6, 17, 8, 18, 4, 21, 4, 17, 19, 18, 9, 20, 17, 4, 4, 9, 20, 17, 0, 8, 6, 14, 17, 6, 4, 18, 4, 2, 7, 4, 15, 0, 6, 4, 18, 11, 14, 20, 17, 3, 6, 14, 20, 19, 18, 1, 8, 4, 17, 4, 9, 0, 20, 13, 4, 19, 4, 13, 19, 0, 4, 23, 0, 2, 19, 1, 0, 8, 13, 18, 3, 20, 17, 4, 17, 1, 17, 20, 11, 0, 19, 14, 8, 11, 4, 6, 4, 13, 14, 20, 2, 0, 11, 12, 0, 2, 4, 13, 19, 18, 18, 14, 12, 12, 4, 4, 21, 8, 19, 4, 18, 14, 13, 13, 4, 5, 14, 11, 8, 4, 11, 0, 12, 15, 4, 11, 0, 17, 6, 4, 19, 17, 0, 2, 4, 18, 4, 8, 13, 18, 11, 0, 21, 4, 17, 13, 14, 19, 4, 18, 0, 21, 14, 20, 4, 1, 8, 4, 13, 18, 5, 0, 8, 12, 18, 5, 8, 23, 4, 17, 13, 4, 20, 21, 4, 4, 21, 8, 19, 0, 2, 17, 14, 8, 23, 12, 4, 19, 17, 4, 9, 20, 6, 4, 17, 5, 8, 11, 4, 25, 0, 17, 17, 4, 19, 19, 8, 19, 17, 4, 11, 0, 17, 12, 4, 12, 4, 11, 4, 17, 21, 4, 18, 19, 4, 15, 14, 12, 12, 4, 17, 4, 6, 11, 4, 2, 14, 20, 19, 4, 5, 8, 11, 4, 18, 5, 8, 11, 4, 4, 5, 8, 11, 0, 8, 15, 8, 17, 4, 18, 5, 20, 12, 4, 25, 16, 20, 4, 20, 4, 5, 8, 23, 4, 18, 5, 8, 11, 0, 19, 13, 4, 20, 5, 18, 16, 20, 4, 11, 18, 4, 13, 13, 20, 8, 2, 14, 11, 11, 4, 2, 17, 4, 4, 17, 19, 14, 8, 19, 18, 5, 20, 12, 4, 4, 11, 8, 18, 19, 4, 5, 8, 23, 4, 4, 15, 0, 8, 13, 18, 2, 14, 20, 11, 4, 5, 20, 12, 0, 8, 17, 14, 11, 4, 18, 5, 20, 12, 0, 19, 2, 17, 8, 18, 4, 12, 4, 11, 4, 4, 17, 0, 17, 4, 18, 4, 11, 4, 21, 4, 18, 14, 8, 13, 18, 5, 20, 18, 8, 11, 18, 14, 13, 13, 0, 17, 4, 8, 13, 4, 8, 3, 8, 14, 19, 1, 0, 8, 18, 4, 16, 20, 0, 17, 19, 3, 20, 17, 4, 4, 18, 14, 20, 2, 8, 3, 20, 17, 0, 19, 12, 4, 11, 4, 18, 5, 8, 23, 4, 25, 18, 24, 12, 15, 0, 5, 8, 23, 0, 8, 0, 12, 0, 13, 19, 2, 14, 20, 11, 0, 6, 17, 0, 2, 4, 5, 8, 23, 0, 19, 5, 8, 4, 17, 4, 5, 14, 17, 2, 4, 21, 8, 4, 8, 11, 17, 4, 15, 14, 18, 6, 4, 13, 8, 4, 12, 4, 11, 4, 25, 15, 8, 18, 19, 4, 2, 17, 4, 21, 4, 15, 14, 13, 19, 18, 12, 8, 13, 2, 4, 4, 11, 4, 21, 0, 12, 0, 18, 18, 4, 19, 0, 15, 4, 17, 3, 14, 20, 19, 0, 12, 4, 11, 0, 8, 12, 4, 11, 0, 19, 7, 0, 8, 13, 4, 20, 18, 8, 13, 4, 0, 21, 14, 20, 0, 2, 14, 11, 11, 0, 12, 14, 24, 4, 13, 15, 11, 0, 2, 0, 2, 7, 8, 4, 17, 15, 14, 8, 11, 18, 1, 0, 8, 18, 0, 11, 24, 2, 4, 4, 2, 14, 12, 19, 4, 9, 20, 6, 4, 25, 1, 14, 12, 1, 4, 9, 20, 6, 4, 0, 15, 0, 17, 8, 4, 5, 20, 24, 4, 25, 5, 8, 4, 17, 18, 19, 4, 17, 12, 4, 9, 20, 6, 4, 4, 4, 2, 11, 0, 19, 18, 8, 6, 13, 0, 18, 8, 4, 6, 4, 9, 20, 6, 4, 18, 21, 8, 17, 4, 17, 12, 0, 17, 17, 4, 18, 19, 24, 11, 4, 15, 14, 8, 13, 6, 15, 20, 17, 4, 18, 15, 14, 19, 4, 18, 17, 14, 18, 4, 18, 0, 13, 6, 4, 18, 15, 17, 4, 19, 0, 21, 14, 8, 4, 18, 5, 20, 8, 4, 18, 5, 20, 8, 17, 0, 0, 2, 19, 4, 18, 0, 8, 11, 4, 18, 5, 14, 17, 12, 0, 4, 19, 4, 13, 3, 3, 17, 0, 15, 18, 1, 14, 20, 11, 4, 11, 0, 21, 4, 4, 7, 20, 17, 11, 4, 2, 17, 4, 4, 4, 4, 15, 14, 20, 23, 2, 17, 4, 21, 0, 4, 15, 0, 8, 18, 2, 14, 17, 3, 4, 15, 0, 19, 19, 4, 11, 0, 21, 4, 25, 0, 3, 8, 4, 20, 13, 14, 12, 12, 4, 5, 8, 13, 4, 18, 21, 0, 18, 19, 4, 15, 4, 8, 13, 19, 1, 0, 17, 1, 4, 11, 0, 21, 4, 18, 13, 20, 0, 6, 4, 14, 4, 20, 5, 18, 15, 11, 4, 20, 19, 2, 17, 4, 4, 18, 18, 14, 13, 6, 4, 18, 4, 17, 8, 4, 11, 0, 21, 0, 8, 11, 8, 21, 17, 0, 21, 8, 19, 17, 4, 6, 4, 13, 4, 17, 5, 14, 17, 2, 0, 12, 8, 13, 4, 18, 11, 4, 2, 14, 13, 1, 17, 8, 18, 4, 17, 4, 6, 11, 0, 15, 8, 16, 20, 4, 5, 17, 20, 8, 19, 3, 8, 13, 4, 25, 18, 0, 11, 20, 4, 12, 0, 19, 2, 7, 17, 20, 18, 18, 4, 2, 17, 4, 4, 25, 17, 0, 13, 6, 4, 3, 8, 13, 4, 18, 2, 17, 4, 0, 8, 2, 17, 4, 0, 19, 3, 14, 20, 25, 4, 4, 6, 0, 17, 3, 3, 8, 13, 0, 8, 18, 20, 4, 20, 17, 3, 8, 13, 0, 19, 19, 0, 2, 7, 4, 4, 19, 20, 3, 4, 20, 13, 8, 19, 4, 20, 19, 8, 11, 4, 18, 14, 20, 15, 4, 19, 20, 4, 20, 17, 6, 4, 13, 4, 4, 7, 20, 17, 11, 0, 5, 17, 8, 2, 18, 19, 4, 11, 4, 18, 3, 4, 12, 14, 13, 6, 0, 17, 4, 18, 17, 0, 19, 4, 17, 11, 20, 13, 4, 18, 6, 4, 13, 4, 25, 6, 4, 13, 4, 18, 2, 14, 20, 19, 0, 21, 8, 21, 4, 18, 19, 0, 15, 4, 25, 5, 8, 2, 7, 4, 21, 8, 17, 4, 4, 15, 4, 17, 19, 4, 19, 0, 15, 4, 4, 21, 8, 17, 4, 25, 2, 7, 4, 17, 8, 19, 14, 17, 19, 18, 19, 0, 15, 4, 18, 0, 13, 6, 11, 4, 19, 0, 15, 0, 8, 17, 0, 24, 14, 13, 6, 4, 13, 0, 19, 4, 23, 8, 6, 4, 1, 11, 14, 13, 3, 21, 8, 17, 4, 18, 5, 8, 2, 7, 0, 0, 3, 12, 8, 18, 12, 14, 16, 20, 4, 21, 8, 3, 4, 17, 18, 20, 2, 17, 4, 11, 8, 13, 6, 4, 11, 20, 4, 20, 17, 11, 20, 19, 19, 4, 21, 8, 17, 0, 19, 21, 8, 17, 0, 8, 1, 0, 18, 4, 18, 18, 0, 11, 20, 0, 11, 0, 8, 19, 18, 21, 0, 6, 20, 4, 15, 4, 8, 13, 18, 2, 7, 20, 19, 4, 12, 14, 12, 4, 18, 12, 14, 16, 20, 0, 15, 14, 17, 19, 18, 4, 13, 5, 20, 8, 5, 20, 8, 19, 4, 1, 17, 8, 18, 0, 11, 20, 13, 3, 8, 19, 0, 23, 8, 18, 17, 14, 12, 15, 20, 0, 6, 8, 19, 4, 14, 1, 4, 8, 17, 3, 4, 12, 8, 4, 15, 8, 16, 20, 0, 0, 21, 0, 11, 4, 15, 0, 11, 4, 18, 20, 18, 0, 6, 4, 7, 4, 11, 0, 18, 15, 4, 13, 3, 20, 17, 14, 13, 3, 4, 7, 20, 8, 11, 4, 12, 4, 19, 17, 14, 17, 0, 13, 6, 18, 0, 3, 12, 4, 19, 18, 20, 1, 8, 17, 15, 11, 20, 12, 4, 11, 0, 15, 8, 13, 19, 0, 1, 0, 2, 13, 20, 16, 20, 4, 1, 17, 4, 21, 4, 21, 14, 8, 11, 4, 2, 7, 0, 13, 19, 1, 17, 0, 21, 4, 2, 4, 13, 18, 4, 2, 4, 3, 4, 17, 1, 17, 20, 13, 4, 12, 4, 19, 0, 11, 18, 14, 20, 17, 3, 18, 4, 23, 4, 18, 0, 3, 12, 8, 19, 1, 4, 19, 4, 18, 15, 4, 18, 4, 17, 25, 14, 13, 4, 18, 19, 4, 23, 19, 4, 17, 4, 2, 8, 19, 15, 8, 4, 6, 4, 0, 6, 8, 19, 0, 16, 20, 0, 8, 18, 13, 14, 12, 12, 0, 3, 8, 6, 13, 4, 12, 14, 17, 3, 20, 18, 4, 20, 8, 11, 0, 21, 0, 11, 0, 13, 4, 17, 5, 18, 15, 14, 20, 11, 4, 12, 0, 11, 8, 13, 18, 14, 17, 19, 18, 11, 8, 4, 13, 18, 17, 4, 20, 13, 8, 11, 4, 13, 19, 4, 6, 0, 5, 5, 4, 0, 2, 2, 4, 18, 21, 8, 3, 4, 4, 17, 14, 13, 3, 18, 17, 0, 21, 8, 17, 17, 0, 19, 4, 4, 17, 0, 19, 4, 25, 14, 1, 4, 8, 18, 21, 8, 3, 4, 25, 6, 0, 13, 19, 18, 14, 1, 4, 8, 19, 17, 0, 19, 4, 18, 13, 14, 1, 11, 4, 12, 8, 3, 8, 18, 17, 0, 19, 0, 8, 2, 14, 20, 3, 4, 12, 4, 18, 18, 4, 17, 0, 21, 8, 19, 21, 8, 3, 0, 8, 15, 4, 13, 3, 4, 15, 4, 13, 3, 18, 12, 14, 17, 3, 18, 17, 4, 5, 8, 19, 21, 8, 3, 0, 18, 1, 17, 4, 5, 18, 14, 2, 4, 0, 13, 11, 14, 20, 15, 18, 3, 17, 0, 12, 4, 5, 14, 13, 2, 4, 21, 4, 17, 18, 4, 11, 14, 20, 4, 17, 3, 4, 15, 8, 19, 0, 12, 8, 4, 18, 19, 0, 18, 18, 4, 17, 4, 5, 8, 18, 15, 14, 4, 19, 4, 3, 4, 2, 14, 17, 17, 14, 12, 15, 19, 15, 4, 13, 19, 4, 21, 4, 17, 18, 0, 14, 17, 0, 6, 4, 17, 14, 20, 4, 18, 2, 11, 20, 1, 18, 2, 0, 3, 17, 4, 1, 0, 13, 2, 18, 15, 11, 0, 19, 4, 2, 20, 8, 17, 18, 0, 21, 0, 13, 19, 20, 13, 8, 14, 13, 17, 14, 12, 15, 18, 6, 14, 20, 19, 4, 2, 14, 13, 13, 4, 4, 2, 0, 17, 19, 1, 14, 18, 18, 4, 0, 2, 8, 4, 17, 17, 14, 12, 15, 4, 15, 4, 18, 4, 25, 4, 2, 7, 4, 2, 9, 4, 20, 3, 8, 2, 17, 20, 4, 11, 15, 4, 18, 4, 18, 1, 17, 20, 13, 18, 1, 0, 6, 20, 4, 4, 6, 0, 11, 4, 15, 4, 18, 4, 4, 13, 20, 11, 11, 4, 18, 8, 13, 6, 4, 18, 20, 17, 6, 8, 17, 4, 12, 20, 4, 15, 4, 18, 0, 19, 15, 4, 18, 0, 8, 5, 8, 11, 4, 19, 11, 4, 13, 19, 18, 12, 14, 17, 3, 4, 21, 4, 17, 19, 20, 18, 0, 8, 13, 19, 15, 14, 20, 2, 4, 7, 8, 15, 15, 14, 1, 14, 19, 19, 4, 19, 14, 19, 0, 11, 7, 0, 8, 17, 0, 0, 1, 17, 8, 18, 2, 7, 8, 4, 18, 7, 0, 8, 4, 18, 14, 1, 4, 8, 4, 17, 4, 12, 20, 0, 18, 15, 14, 17, 19, 3, 0, 19, 4, 18, 2, 7, 8, 4, 25, 21, 8, 11, 11, 0, 2, 7, 8, 4, 4, 0, 20, 1, 4, 18, 15, 14, 4, 12, 4, 17, 0, 18, 4, 17, 13, 14, 19, 4, 17, 3, 8, 17, 4, 18, 17, 4, 8, 13, 18, 5, 4, 18, 18, 4, 18, 20, 1, 8, 19, 12, 14, 3, 4, 18, 11, 8, 4, 4, 18, 19, 8, 4, 3, 4, 2, 11, 4, 5, 18, 1, 14, 18, 18, 0, 21, 4, 19, 20, 4, 4, 2, 17, 0, 13, 1, 17, 20, 12, 4, 11, 8, 0, 8, 19, 18, 20, 1, 8, 18, 9, 14, 20, 8, 17, 17, 4, 4, 11, 18, 15, 11, 0, 19, 18, 15, 14, 12, 15, 4, 1, 0, 17, 17, 4, 2, 4, 3, 4, 25, 13, 14, 19, 4, 25, 0, 21, 17, 8, 11, 12, 14, 2, 7, 4, 9, 14, 8, 13, 19, 6, 0, 2, 7, 4, 2, 4, 3, 0, 8, 5, 0, 2, 7, 4, 21, 0, 8, 13, 4, 5, 11, 0, 13, 2, 2, 4, 3, 4, 18, 2, 4, 3, 4, 4, 2, 4, 3, 0, 19, 6, 17, 0, 8, 13, 18, 20, 1, 8, 4, 18, 0, 6, 4, 18, 14, 5, 5, 17, 4, 15, 17, 8, 21, 4, 9, 20, 8, 21, 4, 11, 0, 8, 13, 4, 19, 4, 18, 19, 18, 11, 8, 4, 13, 19, 15, 20, 13, 8, 17, 13, 0, 6, 4, 17, 6, 14, 20, 19, 0, 15, 0, 17, 2, 18, 11, 8, 0, 8, 18, 21, 4, 19, 20, 18, 4, 6, 0, 20, 23, 11, 8, 4, 17, 0, 11, 8, 14, 13, 18, 12, 0, 8, 17, 4, 10, 8, 11, 14, 18, 1, 0, 19, 14, 13, 5, 20, 19, 20, 17, 1, 0, 17, 14, 13, 19, 0, 20, 11, 4, 15, 20, 8, 19, 18, 9, 14, 8, 13, 18, 3, 4, 12, 8, 18, 2, 0, 13, 13, 4, 17, 20, 8, 13, 4, 15, 17, 14, 8, 4, 12, 4, 5, 8, 4, 21, 0, 8, 13, 18, 2, 8, 1, 11, 4, 12, 0, 6, 8, 4, 11, 14, 20, 4, 4, 21, 4, 8, 13, 4, 5, 4, 19, 4, 17, 9, 20, 15, 4, 18, 16, 20, 0, 13, 19, 21, 4, 13, 19, 4, 15, 11, 8, 4, 17, 11, 14, 20, 4, 25, 2, 0, 13, 0, 11, 11, 14, 20, 21, 4, 13, 4, 19, 19, 4, 17, 14, 24, 0, 11, 21, 14, 4, 20, 23, 9, 20, 8, 5, 18, 14, 13, 6, 11, 4, 17, 0, 8, 3, 4, 18, 4, 8, 25, 4, 11, 14, 20, 4, 18, 5, 11, 14, 19, 18, 2, 14, 13, 6, 4, 11, 14, 20, 0, 8, 12, 0, 17, 3, 8, 17, 0, 18, 4, 4, 14, 15, 4, 17, 0, 15, 0, 20, 18, 4, 13, 14, 19, 0, 8, 19, 0, 11, 14, 13, 0, 18, 8, 11, 4, 1, 4, 13, 8, 18, 4, 19, 0, 11, 4, 19, 20, 24, 0, 20, 13, 14, 19, 4, 4, 21, 4, 19, 8, 17, 0, 15, 15, 20, 8, 17, 0, 18, 4, 18, 11, 20, 19, 19, 0, 12, 14, 19, 8, 5, 21, 8, 18, 4, 17, 0, 20, 19, 14, 18, 5, 14, 13, 2, 0, 1, 4, 13, 8, 4, 4, 2, 17, 8, 0, 17, 0, 2, 4, 18, 2, 14, 3, 4, 18, 21, 14, 12, 8, 17, 7, 0, 1, 8, 19, 3, 4, 20, 8, 11, 4, 18, 18, 0, 8, 15, 11, 14, 12, 1, 3, 4, 6, 17, 4, 13, 4, 21, 4, 20, 1, 14, 13, 19, 4, 14, 20, 1, 11, 8, 4, 19, 0, 11, 0, 1, 4, 13, 8, 17, 17, 0, 18, 4, 25, 15, 8, 18, 18, 4, 12, 14, 8, 13, 4, 21, 14, 24, 14, 20, 21, 8, 18, 4, 25, 17, 0, 18, 0, 8, 1, 20, 19, 4, 17, 13, 14, 24, 4, 4, 13, 0, 13, 0, 18, 17, 4, 5, 20, 18, 21, 4, 19, 4, 25, 17, 4, 6, 13, 4, 6, 20, 8, 3, 4, 21, 4, 19, 8, 19, 3, 8, 21, 8, 13, 21, 4, 19, 8, 18, 4, 13, 2, 17, 4, 19, 0, 17, 3, 4, 2, 14, 6, 13, 4, 2, 14, 19, 14, 13, 17, 4, 6, 13, 0, 21, 8, 14, 11, 4, 15, 0, 13, 13, 4, 21, 4, 11, 14, 18, 15, 17, 14, 5, 18, 15, 11, 8, 4, 4, 1, 4, 13, 8, 19, 13, 14, 24, 4, 18, 5, 0, 2, 7, 0, 11, 0, 18, 18, 4, 1, 8, 1, 11, 4, 15, 14, 17, 2, 18, 15, 8, 11, 4, 18, 1, 11, 14, 2, 18, 12, 14, 17, 0, 11, 1, 14, 20, 4, 18, 8, 13, 3, 4, 23, 15, 4, 17, 2, 4, 5, 17, 0, 13, 2, 15, 11, 8, 4, 18, 21, 4, 13, 6, 4, 2, 0, 6, 4, 18, 12, 20, 4, 19, 18, 6, 0, 2, 7, 0, 12, 4, 2, 7, 4, 18, 14, 8, 5, 18, 19, 17, 14, 13, 2, 3, 0, 11, 11, 4, 15, 17, 8, 21, 0, 22, 0, 6, 14, 13, 4, 15, 4, 4, 18, 9, 14, 20, 8, 19, 18, 0, 2, 17, 4, 21, 8, 18, 4, 18, 17, 8, 21, 4, 18, 18, 0, 21, 14, 13, 4, 2, 7, 14, 18, 13, 14, 8, 4, 18, 12, 14, 11, 11, 4, 19, 0, 17, 3, 0, 17, 4, 0, 6, 8, 13, 14, 24, 4, 25, 4, 19, 0, 15, 4, 21, 8, 18, 4, 4, 15, 8, 18, 18, 0, 15, 11, 8, 4, 25, 21, 8, 18, 0, 8, 11, 0, 12, 4, 18, 9, 14, 20, 8, 18, 15, 20, 13, 8, 19, 9, 14, 20, 4, 19, 2, 14, 15, 8, 4, 13, 14, 2, 4, 18, 6, 0, 8, 4, 18, 0, 17, 12, 4, 4, 5, 14, 13, 3, 20, 15, 11, 8, 0, 8, 2, 11, 14, 20, 18, 15, 11, 8, 0, 19, 5, 8, 2, 7, 20, 7, 0, 19, 4, 18, 15, 4, 19, 4, 17, 2, 8, 21, 8, 11, 18, 14, 8, 4, 18, 11, 8, 18, 18, 4, 15, 11, 0, 8, 4, 8, 12, 8, 19, 4, 2, 7, 14, 20, 23, 14, 19, 0, 8, 19, 2, 14, 6, 13, 0, 15, 0, 20, 12, 4, 18, 19, 0, 17, 18, 18, 0, 20, 2, 4, 17, 0, 6, 4, 18, 20, 18, 0, 8, 19, 3, 4, 2, 20, 4, 2, 7, 0, 17, 18, 6, 4, 12, 8, 19, 0, 17, 12, 4, 17, 8, 3, 4, 0, 11, 14, 15, 4, 17, 4, 14, 19, 0, 13, 19, 2, 14, 13, 2, 20, 11, 0, 8, 3, 4, 15, 7, 0, 17, 4, 13, 4, 0, 13, 19, 20, 18, 4, 13, 19, 0, 17, 12, 4, 25, 20, 18, 4, 4, 18, 21, 8, 17, 20, 18, 21, 8, 14, 11, 0, 18, 4, 2, 7, 0, 1, 0, 17, 17, 0, 2, 20, 8, 17, 4, 15, 8, 15, 4, 18, 15, 0, 17, 8, 18, 4, 23, 2, 4, 18, 12, 0, 17, 4, 4, 15, 20, 0, 8, 19, 8, 12, 8, 19, 0, 14, 19, 0, 8, 18, 11, 8, 17, 4, 18, 14, 19, 4, 13, 19, 5, 14, 13, 3, 4, 14, 19, 4, 17, 0, 20, 18, 0, 8, 18, 15, 20, 4, 13, 19, 14, 19, 4, 4, 18, 14, 19, 8, 4, 25, 20, 18, 14, 13, 18, 15, 4, 17, 2, 0, 14, 19, 14, 13, 18, 20, 18, 4, 17, 0, 5, 8, 13, 0, 11, 14, 20, 19, 8, 11, 18, 8, 19, 20, 4, 4, 11, 0, 13, 18, 18, 0, 8, 13, 4, 0, 17, 12, 0, 8, 0, 17, 12, 0, 19, 3, 4, 2, 20, 18, 11, 20, 8, 17, 4, 6, 0, 17, 2, 4, 5, 14, 13, 3, 18, 20, 13, 8, 17, 0, 4, 2, 17, 8, 4, 18, 8, 4, 20, 17, 11, 14, 6, 4, 17, 0, 12, 4, 17, 4, 19, 14, 17, 3, 20, 19, 7, 4, 12, 4, 13, 14, 4, 20, 3, 15, 8, 6, 4, 17, 18, 19, 0, 3, 4, 7, 14, 2, 7, 0, 13, 0, 6, 4, 0, 1, 0, 19, 8, 17, 13, 0, 6, 4, 25, 15, 0, 19, 4, 18, 6, 4, 12, 8, 17, 21, 14, 11, 4, 19, 18, 20, 2, 4, 17, 18, 19, 24, 11, 14, 18, 4, 12, 4, 17, 15, 8, 6, 4, 25, 3, 4, 19, 19, 4, 2, 8, 19, 4, 17, 12, 0, 17, 6, 4, 17, 14, 20, 6, 8, 15, 0, 17, 4, 17, 3, 8, 21, 0, 13, 3, 4, 2, 20, 19, 2, 17, 4, 19, 4, 15, 20, 0, 8, 18, 0, 17, 0, 1, 4, 5, 14, 18, 18, 4, 25, 4, 17, 14, 18, 19, 17, 0, 2, 0, 6, 0, 17, 4, 17, 7, 14, 19, 4, 18, 15, 20, 4, 17, 0, 11, 20, 23, 4, 18, 21, 14, 12, 8, 19, 15, 20, 2, 4, 18, 15, 4, 17, 2, 20, 1, 20, 19, 4, 4, 18, 4, 11, 11, 4, 1, 20, 19, 4, 25, 1, 20, 19, 4, 18, 0, 6, 4, 4, 18, 5, 4, 19, 4, 25, 15, 0, 17, 4, 18, 21, 0, 11, 4, 19, 21, 0, 8, 13, 2, 15, 0, 17, 14, 8, 5, 17, 8, 6, 14, 15, 0, 17, 4, 4, 11, 14, 2, 0, 11, 1, 20, 19, 0, 8, 5, 8, 13, 8, 4, 6, 20, 8, 18, 4, 2, 0, 13, 4, 18, 8, 21, 17, 4, 18, 5, 4, 19, 4, 4, 17, 20, 1, 0, 13, 3, 4, 11, 0, 8, 6, 20, 8, 3, 0, 11, 20, 8, 18, 4, 11, 20, 8, 17, 0, 6, 0, 17, 4, 4, 6, 4, 0, 13, 19, 4, 12, 4, 20, 19, 5, 0, 19, 0, 11, 5, 14, 8, 17, 4, 4, 19, 8, 17, 4, 19, 14, 17, 3, 18, 0, 11, 1, 20, 12, 19, 20, 1, 4, 18, 17, 8, 3, 4, 18, 5, 8, 11, 12, 4, 15, 4, 3, 4, 18, 5, 14, 13, 3, 0, 19, 17, 14, 13, 4, 0, 11, 11, 4, 17, 15, 0, 17, 4, 25, 18, 19, 14, 15, 18, 18, 0, 8, 13, 18, 5, 14, 20, 4, 19, 0, 8, 6, 20, 4, 19, 17, 8, 1, 20, 13, 0, 15, 15, 4, 12, 14, 19, 14, 18, 1, 0, 13, 0, 11, 19, 14, 17, 3, 4, 5, 8, 13, 8, 18, 13, 8, 0, 8, 19, 21, 0, 18, 4, 18, 4, 19, 8, 17, 0, 21, 14, 3, 10, 0, 1, 20, 18, 19, 4, 15, 13, 4, 20, 18, 14, 19, 0, 6, 4, 15, 0, 17, 0, 8, 13, 8, 4, 13, 19, 11, 0, 8, 3, 18, 15, 4, 18, 19, 4, 17, 0, 12, 15, 4, 2, 8, 4, 20, 23, 21, 14, 12, 8, 4, 21, 14, 20, 19, 4, 5, 14, 20, 17, 18, 12, 0, 9, 14, 17, 13, 8, 0, 13, 19, 7, 14, 2, 7, 4, 18, 4, 12, 4, 4, 2, 7, 4, 13, 4, 12, 0, 17, 17, 0, 15, 4, 19, 4, 18, 18, 0, 15, 8, 13, 14, 13, 3, 4, 18, 1, 0, 11, 0, 8, 6, 17, 4, 2, 18, 18, 8, 19, 20, 0, 21, 14, 19, 4, 17, 21, 8, 3, 4, 14, 13, 8, 14, 13, 18, 16, 20, 4, 19, 4, 15, 4, 19, 4, 4, 21, 14, 8, 17, 4, 13, 8, 4, 17, 0, 6, 4, 17, 4, 17, 17, 14, 13, 6, 4, 18, 4, 12, 4, 18, 3, 4, 5, 8, 19, 6, 0, 12, 8, 13, 15, 4, 19, 4, 25, 6, 0, 17, 4, 25, 6, 4, 12, 8, 18, 6, 4, 11, 4, 4, 15, 14, 4, 11, 4, 0, 13, 8, 12, 4, 11, 14, 6, 4, 4, 4, 12, 20, 4, 18, 15, 8, 25, 25, 0, 2, 17, 4, 20, 23, 17, 14, 2, 7, 4, 17, 0, 8, 11, 18, 4, 17, 17, 4, 17, 2, 8, 19, 4, 25, 11, 14, 6, 4, 25, 4, 13, 6, 8, 13, 18, 0, 11, 8, 17, 11, 14, 6, 4, 18, 0, 1, 8, 12, 4, 0, 6, 0, 2, 4, 6, 4, 12, 8, 4, 0, 21, 4, 20, 23, 15, 4, 17, 11, 4, 0, 12, 4, 17, 18, 15, 4, 11, 11, 4, 2, 8, 19, 4, 4, 15, 0, 17, 19, 8, 18, 4, 12, 4, 25, 6, 4, 11, 4, 17, 3, 4, 15, 14, 19, 2, 20, 8, 19, 18, 0, 21, 8, 18, 4, 2, 8, 19, 4, 18, 18, 8, 19, 14, 19, 2, 8, 19, 0, 8, 18, 4, 12, 0, 19, 1, 14, 13, 3, 8, 11, 14, 6, 4, 0, 8, 13, 5, 14, 18, 5, 14, 8, 4, 18, 4, 13, 21, 8, 0, 1, 0, 19, 8, 19, 17, 20, 3, 4, 18, 11, 14, 24, 4, 17, 3, 4, 5, 8, 18, 2, 8, 19, 0, 19, 19, 4, 12, 15, 4, 3, 14, 20, 4, 4, 0, 20, 19, 4, 11, 2, 11, 14, 18, 4, 18, 4, 0, 20, 23, 8, 18, 14, 11, 4, 7, 0, 2, 7, 4, 12, 0, 19, 4, 17, 1, 14, 17, 3, 4, 15, 8, 15, 4, 17, 2, 14, 13, 19, 4, 5, 8, 11, 12, 0, 13, 14, 20, 4, 17, 3, 4, 1, 0, 19, 1, 4, 19, 14, 13, 12, 0, 13, 8, 4, 14, 20, 17, 18, 4, 18, 0, 1, 17, 4, 5, 8, 6, 4, 4, 17, 14, 2, 10, 18, 2, 11, 14, 17, 4, 2, 7, 0, 14, 18, 18, 20, 2, 4, 18, 0, 2, 7, 0, 19, 21, 8, 6, 13, 4, 17, 14, 1, 14, 19, 2, 20, 8, 17, 0, 2, 20, 8, 18, 4, 0, 8, 6, 20, 18, 18, 0, 2, 17, 0, 18, 20, 2, 4, 25, 18, 0, 14, 20, 11, 4, 6, 0, 17, 4, 12, 4, 13, 20, 18, 15, 14, 20, 11, 18, 18, 20, 2, 4, 4, 0, 13, 8, 12, 0, 5, 4, 13, 3, 20, 6, 4, 11, 4, 18, 0, 21, 8, 18, 0, 5, 8, 6, 4, 18, 21, 14, 19, 4, 25, 12, 0, 12, 8, 4, 15, 7, 0, 18, 4, 12, 14, 13, 19, 18, 11, 8, 19, 17, 4, 0, 1, 20, 18, 4, 13, 8, 4, 2, 4, 12, 8, 2, 17, 14, 5, 8, 6, 4, 17, 6, 4, 11, 4, 25, 1, 8, 9, 14, 20, 5, 8, 6, 4, 0, 6, 4, 11, 0, 19, 19, 0, 11, 20, 18, 14, 17, 13, 4, 4, 19, 0, 2, 7, 0, 21, 8, 2, 4, 18, 16, 20, 0, 18, 8, 6, 8, 11, 4, 19, 12, 0, 11, 11, 4, 19, 8, 6, 17, 4, 2, 4, 17, 5, 18, 2, 14, 17, 13, 4, 4, 19, 0, 13, 6, 11, 4, 2, 7, 4, 2, 0, 1, 11, 4, 11, 14, 13, 6, 4, 21, 14, 19, 4, 4, 13, 14, 20, 4, 18, 0, 1, 1, 4, 18, 3, 4, 11, 8, 19, 11, 4, 2, 7, 0, 15, 14, 8, 17, 4, 17, 4, 11, 8, 4, 2, 11, 14, 17, 0, 2, 8, 17, 4, 4, 13, 0, 8, 21, 4, 3, 14, 18, 4, 18, 8, 18, 14, 11, 0, 15, 0, 2, 19, 4, 5, 11, 20, 19, 4, 1, 14, 17, 13, 4, 2, 20, 11, 19, 4, 1, 14, 17, 3, 0, 17, 20, 18, 4, 18, 13, 14, 20, 4, 4, 21, 0, 13, 19, 4, 4, 17, 17, 0, 8, 0, 1, 8, 12, 0, 21, 14, 19, 4, 18, 5, 0, 17, 2, 4, 0, 6, 0, 2, 0, 4, 17, 17, 4, 18, 4, 17, 17, 4, 25, 19, 7, 4, 18, 4, 18, 0, 11, 8, 18, 15, 4, 17, 8, 11, 14, 17, 13, 4, 18, 15, 8, 13, 2, 4, 7, 0, 11, 11, 18, 5, 8, 6, 4, 25, 2, 7, 8, 2, 18, 19, 14, 13, 13, 4, 17, 4, 2, 20, 11, 15, 0, 2, 7, 0, 5, 4, 13, 3, 18, 1, 14, 13, 3, 18, 14, 17, 13, 4, 17, 18, 0, 1, 14, 19, 1, 8, 19, 4, 18, 17, 4, 21, 8, 18, 18, 0, 11, 8, 4, 3, 0, 19, 4, 17, 15, 8, 13, 2, 0, 4, 2, 20, 12, 4, 3, 4, 15, 11, 20, 7, 0, 19, 4, 17, 5, 4, 13, 3, 4, 17, 4, 11, 8, 18, 12, 4, 13, 20, 4, 13, 20, 8, 17, 4, 19, 14, 0, 18, 19, 13, 14, 20, 0, 8, 13, 0, 21, 17, 4, 13, 14, 20, 4, 25, 5, 17, 4, 8, 13, 13, 14, 20, 0, 18, 2, 14, 11, 8, 18, 3, 14, 20, 4, 18, 12, 14, 17, 13, 4, 19, 17, 4, 21, 4, 1, 8, 11, 11, 4, 18, 0, 20, 19, 18, 17, 4, 11, 20, 19, 3, 0, 19, 4, 4, 18, 0, 11, 8, 19, 11, 4, 6, 0, 11, 17, 8, 4, 13, 18, 7, 0, 17, 4, 12, 3, 4, 2, 4, 18, 2, 11, 14, 20, 4, 2, 4, 17, 13, 4, 21, 8, 1, 17, 4, 5, 17, 14, 11, 4, 21, 0, 13, 19, 0, 14, 17, 13, 4, 25, 0, 1, 20, 18, 0, 6, 11, 0, 2, 0, 14, 17, 13, 0, 19, 12, 20, 17, 4, 18, 17, 8, 19, 4, 18, 7, 8, 18, 18, 4, 1, 20, 11, 11, 4, 21, 4, 23, 4, 17, 1, 8, 18, 14, 20, 3, 0, 19, 4, 25, 12, 0, 19, 4, 25, 6, 8, 5, 11, 4, 17, 4, 11, 8, 19, 2, 14, 20, 18, 20, 0, 11, 8, 1, 8, 5, 4, 13, 19, 4, 12, 0, 17, 8, 13, 3, 14, 20, 4, 17, 4, 11, 8, 19, 4, 13, 0, 8, 5, 18, 4, 6, 0, 17, 0, 15, 4, 2, 7, 4, 2, 8, 17, 4, 17, 3, 4, 5, 8, 4, 19, 0, 19, 4, 17, 11, 0, 1, 14, 18, 17, 4, 11, 20, 18, 12, 8, 4, 11, 18, 2, 20, 11, 14, 19, 5, 4, 8, 13, 19, 7, 8, 18, 18, 0, 17, 14, 3, 4, 17, 1, 14, 20, 17, 6, 17, 4, 21, 8, 19, 17, 20, 8, 13, 0, 2, 17, 0, 1, 4, 12, 0, 19, 4, 18, 11, 0, 18, 18, 0, 4, 15, 0, 21, 4, 12, 0, 19, 4, 4, 17, 4, 11, 20, 4, 2, 17, 0, 8, 4, 2, 20, 8, 19, 4, 1, 8, 2, 7, 4, 4, 21, 0, 3, 4, 5, 17, 14, 11, 0, 7, 0, 13, 19, 4, 2, 14, 16, 20, 4, 6, 0, 11, 14, 15, 20, 13, 8, 4, 18, 17, 0, 12, 15, 0, 0, 21, 8, 3, 4, 15, 0, 15, 4, 18, 0, 8, 6, 11, 4, 21, 8, 21, 17, 4, 6, 4, 17, 4, 25, 0, 2, 19, 8, 5, 6, 4, 17, 4, 4, 21, 14, 20, 4, 4, 4, 21, 8, 4, 17, 7, 0, 11, 19, 4, 17, 4, 21, 4, 19, 11, 14, 6, 8, 18, 1, 4, 17, 4, 19, 21, 8, 19, 0, 11, 7, 0, 19, 0, 8, 5, 11, 14, 20, 4, 21, 4, 20, 21, 4, 6, 4, 17, 4, 18, 6, 0, 6, 4, 18, 7, 0, 19, 4, 25, 21, 4, 23, 4, 4, 12, 4, 6, 14, 19, 1, 0, 13, 3, 0, 17, 4, 15, 8, 19, 6, 0, 19, 4, 17, 1, 0, 25, 0, 17, 1, 17, 8, 13, 18, 15, 8, 6, 4, 18, 15, 4, 17, 8, 17, 21, 8, 1, 17, 0, 2, 14, 20, 3, 18, 5, 17, 4, 12, 8, 7, 0, 19, 4, 4, 4, 11, 8, 18, 4, 1, 4, 17, 6, 4, 7, 0, 19, 0, 19, 2, 14, 20, 18, 4, 17, 0, 21, 8, 13, 12, 0, 20, 21, 4, 15, 4, 2, 7, 0, 21, 4, 0, 20, 23, 11, 14, 20, 15, 4, 0, 1, 14, 17, 3, 2, 11, 0, 13, 18, 1, 0, 21, 4, 17, 5, 4, 8, 13, 18, 19, 4, 17, 13, 4, 6, 17, 0, 21, 0, 15, 14, 10, 4, 17, 1, 11, 4, 12, 4, 4, 11, 8, 17, 4, 18, 11, 8, 15, 18, 2, 4, 17, 13, 0, 12, 0, 5, 8, 0, 0, 8, 13, 4, 4, 21, 14, 20, 4, 17, 3, 20, 13, 4, 18, 2, 11, 14, 20, 0, 21, 0, 11, 18, 4, 5, 14, 17, 6, 4, 1, 0, 2, 7, 4, 12, 14, 8, 19, 4, 12, 0, 19, 7, 18, 12, 0, 17, 10, 18, 21, 4, 23, 4, 18, 11, 14, 24, 0, 11, 21, 14, 20, 4, 18, 6, 0, 19, 4, 4, 6, 11, 14, 1, 4, 6, 8, 17, 11, 18, 18, 14, 11, 3, 4, 9, 4, 19, 14, 13, 21, 4, 23, 4, 25, 5, 11, 14, 20, 18, 13, 0, 19, 0, 11, 4, 12, 4, 19, 18, 11, 4, 21, 4, 17, 12, 24, 19, 7, 4, 6, 17, 0, 3, 4, 21, 4, 23, 0, 8, 18, 8, 17, 14, 15, 2, 11, 14, 15, 4, 2, 8, 17, 4, 18, 5, 14, 8, 13, 18, 6, 0, 13, 6, 18, 1, 4, 17, 2, 4, 19, 4, 18, 19, 4, 4, 12, 8, 18, 4, 14, 20, 4, 18, 19, 7, 24, 12, 13, 4, 21, 8, 14, 11, 18, 1, 11, 20, 4, 18, 15, 11, 0, 13, 4, 2, 8, 17, 4, 25, 7, 0, 13, 19, 0, 2, 17, 4, 15, 4, 13, 20, 8, 17, 0, 2, 11, 8, 13, 18, 6, 0, 19, 4, 18, 0, 11, 11, 4, 25, 8, 3, 14, 11, 4, 13, 20, 8, 18, 4, 8, 13, 14, 20, 8, 17, 7, 20, 12, 4, 15, 8, 15, 8, 18, 12, 0, 11, 4, 18, 4, 21, 0, 3, 0, 17, 14, 3, 4, 18, 6, 14, 12, 12, 4, 4, 15, 8, 4, 17, 2, 7, 14, 15, 4, 8, 12, 15, 14, 19, 3, 4, 5, 8, 0, 19, 0, 19, 4, 25, 17, 14, 3, 0, 8, 17, 14, 3, 4, 4, 2, 0, 13, 14, 13, 6, 0, 19, 4, 25, 21, 14, 20, 0, 8, 17, 14, 3, 4, 25, 19, 0, 19, 0, 8, 15, 20, 0, 13, 19, 18, 8, 19, 4, 18, 15, 20, 11, 11, 18, 2, 7, 0, 11, 4, 12, 20, 11, 4, 18, 14, 18, 8, 4, 17, 3, 4, 6, 0, 19, 17, 20, 0, 8, 19, 17, 20, 0, 13, 19, 19, 0, 19, 4, 18, 2, 0, 18, 4, 18, 17, 20, 4, 13, 19, 15, 14, 11, 8, 4, 5, 11, 0, 18, 7, 6, 8, 5, 11, 0, 1, 8, 11, 0, 13, 6, 0, 19, 0, 19, 3, 4, 13, 18, 4, 2, 0, 11, 4, 17, 3, 8, 2, 19, 4, 1, 17, 0, 21, 14, 0, 5, 5, 20, 19, 4, 6, 14, 20, 19, 13, 14, 24, 0, 20, 1, 14, 24, 0, 20, 15, 8, 4, 20, 23, 15, 14, 11, 8, 18, 2, 24, 6, 13, 4, 0, 20, 17, 0, 18, 15, 11, 0, 13, 0, 19, 4, 19, 20, 4, 4, 15, 8, 13, 4, 19, 18, 0, 17, 18, 2, 0, 15, 19, 4, 7, 4, 11, 11, 14, 2, 0, 11, 4, 25, 17, 4, 13, 8, 4, 15, 0, 17, 2, 8, 6, 4, 17, 1, 4, 17, 20, 0, 8, 18, 9, 20, 17, 24, 18, 5, 8, 0, 13, 19, 11, 0, 2, 4, 19, 2, 0, 13, 14, 19, 17, 20, 4, 4, 18, 12, 4, 11, 14, 13, 0, 1, 14, 8, 4, 17, 20, 14, 13, 18, 19, 17, 8, 15, 4, 5, 17, 4, 11, 4, 17, 4, 3, 8, 18, 0, 8, 13, 4, 18, 15, 20, 17, 4, 4, 19, 4, 18, 19, 0, 5, 8, 0, 8, 19, 2, 24, 2, 11, 4, 19, 24, 17, 0, 13, 20, 18, 20, 17, 4, 2, 0, 11, 4, 4, 17, 0, 12, 4, 18, 5, 8, 0, 8, 18, 2, 17, 0, 13, 18, 5, 8, 14, 13, 18, 5, 8, 4, 13, 19, 1, 20, 19, 8, 13, 11, 0, 19, 8, 13, 5, 8, 4, 17, 0, 1, 20, 2, 7, 4, 1, 17, 14, 3, 4, 20, 17, 8, 13, 4, 15, 8, 15, 0, 8, 17, 0, 8, 3, 8, 18, 19, 4, 0, 10, 15, 14, 6, 13, 4, 1, 4, 17, 2, 0, 13, 0, 21, 17, 0, 17, 0, 3, 0, 17, 15, 11, 4, 20, 17, 1, 8, 3, 14, 13, 18, 7, 14, 17, 19, 12, 14, 20, 11, 4, 9, 4, 0, 13, 18, 6, 0, 11, 14, 13, 17, 4, 18, 19, 14, 17, 0, 11, 4, 17, 21, 8, 17, 8, 11, 2, 0, 11, 4, 18, 3, 8, 13, 3, 4, 15, 4, 17, 8, 19, 15, 4, 18, 14, 18, 2, 0, 12, 15, 4, 12, 0, 13, 8, 0, 17, 0, 24, 4, 17, 7, 14, 18, 19, 14, 1, 0, 18, 4, 4, 18, 19, 14, 2, 10, 14, 20, 19, 17, 4, 19, 0, 18, 18, 0, 17, 14, 12, 0, 13, 14, 21, 0, 11, 4, 1, 17, 8, 3, 4, 5, 0, 11, 18, 4, 0, 21, 0, 8, 19, 0, 21, 14, 8, 17, 0, 21, 0, 8, 18, 0, 21, 14, 13, 18, 0, 24, 0, 13, 19, 0, 21, 8, 4, 25, 0, 8, 4, 13, 19, 0, 20, 17, 4, 25, 0, 24, 14, 13, 18, 4, 20, 18, 18, 4, 4, 20, 12, 4, 18, 4, 20, 19, 4, 18, 5, 0, 8, 17, 4, 4, 19, 0, 8, 19, 4, 19, 0, 13, 19, 18, 4, 17, 0, 8, 18, 4, 17, 4, 25, 4, 19, 8, 4, 25, 18, 4, 17, 0, 18, 18, 14, 24, 4, 25, 5, 20, 12, 4, 18, 5, 20, 18, 18, 4, 5, 20, 19, 4, 18, 5, 4, 17, 0, 8, 5, 0, 18, 18, 4, 5, 0, 8, 19, 4, 5, 4, 17, 0, 18, 5, 0, 8, 19, 18, 5, 4, 17, 4, 25, 5, 8, 12, 4, 18, 5, 8, 18, 18, 4, 5, 8, 19, 4, 18, 0, 8, 11, 11, 4, 0, 11, 11, 4, 4, 8, 17, 0, 8, 19, 0, 11, 11, 4, 18, 8, 17, 0, 8, 18, 8, 17, 14, 13, 18, 0, 11, 11, 0, 8, 8, 17, 14, 13, 19, 8, 17, 8, 4, 25, 0, 11, 11, 0, 19, 0, 11, 11, 0, 18, 3, 8, 19, 4, 18, 3, 8, 17, 0, 8, 3, 8, 17, 0, 18, 3, 8, 17, 4, 25, 3, 8, 18, 4, 18, 3, 8, 12, 4, 18, 2, 4, 19, 19, 4, 15, 20, 12, 4, 18, 15, 20, 18, 18, 4, 15, 20, 19, 4, 18, 21, 14, 20, 11, 20, 19, 14, 20, 19, 4, 18, 0, 21, 4, 25, 21, 14, 24, 4, 25, 21, 4, 17, 17, 0, 18, 0, 2, 7, 4, 21, 8, 12, 4, 18, 18, 20, 12, 4, 18, 18, 20, 18, 18, 4, 0, 11, 14, 17, 18, 0, 20, 18, 18, 8, 21, 8, 4, 13, 18, 2, 7, 14, 18, 4, 21, 4, 13, 8, 17, 21, 8, 4, 13, 19, 3, 4, 21, 4, 25, 21, 14, 19, 17, 4, 19, 4, 12, 15, 18, 21, 4, 13, 4, 25, 3, 4, 21, 17, 0, 3, 14, 8, 21, 4, 3, 20, 12, 4, 18, 3, 20, 18, 18, 4, 21, 4, 13, 20, 4, 21, 4, 13, 20, 18, 7, 14, 12, 12, 4, 15, 4, 19, 8, 19, 2, 17, 14, 8, 18, 15, 17, 4, 13, 3, 15, 0, 17, 11, 4, 5, 4, 12, 12, 4, 15, 17, 8, 18, 4, 13, 14, 19, 17, 4, 9, 14, 20, 17, 18, 1, 14, 13, 13, 4, 12, 14, 13, 3, 4, 15, 0, 18, 18, 4, 15, 0, 17, 11, 0, 15, 4, 13, 18, 4, 18, 20, 8, 21, 4, 0, 20, 19, 17, 4, 5, 0, 11, 11, 20, 2, 17, 14, 8, 19, 6, 17, 0, 13, 3, 15, 0, 18, 18, 0, 2, 17, 14, 8, 4, 2, 17, 20, 4, 18, 0, 8, 12, 4, 18, 0, 8, 12, 4, 17, 0, 8, 12, 4, 25, 7, 4, 20, 17, 4, 3, 14, 13, 13, 4, 5, 8, 11, 11, 4, 0, 8, 12, 4, 4, 18, 4, 20, 11, 4, 0, 8, 12, 0, 19, 0, 8, 12, 0, 8, 15, 4, 13, 18, 0, 4, 13, 19, 17, 4, 12, 14, 8, 13, 18, 12, 0, 8, 13, 18, 11, 4, 20, 17, 18, 3, 14, 13, 13, 0, 12, 4, 19, 19, 4, 21, 14, 8, 11, 0, 12, 8, 18, 4, 18, 12, 8, 4, 20, 23, 12, 8, 12, 4, 18, 19, 17, 14, 8, 18, 4, 11, 11, 4, 18, 18, 4, 20, 11, 18, 17, 4, 18, 19, 4, 2, 14, 12, 12, 4, 17, 4, 18, 19, 0, 1, 4, 11, 11, 4, 15, 14, 17, 19, 4, 2, 14, 13, 13, 20, 0, 12, 14, 20, 17, 18, 14, 17, 19, 8, 0, 18, 18, 4, 25, 15, 4, 17, 4, 18, 14, 4, 8, 11, 18, 15, 0, 17, 19, 4, 9, 20, 18, 19, 4, 2, 14, 20, 15, 18, 9, 4, 20, 13, 4, 15, 11, 0, 2, 4, 12, 4, 17, 4, 18, 19, 4, 19, 4, 18, 2, 14, 17, 15, 18, 19, 4, 13, 8, 17, 19, 4, 17, 17, 4, 19, 8, 4, 13, 19, 13, 20, 8, 19, 18, 1, 4, 0, 20, 23, 4, 13, 5, 8, 13, 19, 8, 4, 13, 18, 21, 17, 0, 8, 4, 3, 8, 4, 20, 23, 19, 4, 13, 4, 25, 12, 4, 20, 17, 19, 12, 0, 12, 0, 13, 18, 20, 17, 4, 18, 12, 4, 20, 17, 18, 0, 8, 13, 18, 8, 12, 4, 12, 4, 18, 12, 4, 20, 17, 4, 12, 0, 19, 8, 13, 15, 11, 0, 8, 19, 21, 17, 0, 8, 18, 0, 8, 3, 4, 17, 19, 4, 13, 20, 4, 15, 4, 17, 3, 20, 9, 14, 20, 4, 17, 19, 4, 13, 20, 18, 21, 8, 4, 20, 23, 2, 14, 4, 20, 17, 21, 8, 11, 11, 4, 18, 14, 8, 17, 18, 15, 4, 8, 13, 4, 14, 20, 0, 8, 18, 5, 8, 13, 8, 17, 2, 4, 11, 20, 8, 14, 20, 21, 17, 4, 19, 20, 4, 17, 0, 19, 20, 4, 13, 19, 19, 20, 0, 8, 19, 19, 20, 4, 4, 18, 19, 20, 14, 13, 18, 19, 20, 0, 8, 18, 19, 20, 8, 4, 25, 18, 20, 8, 19, 4, 17, 4, 13, 3, 18, 5, 8, 13, 8, 19, 17, 4, 13, 3, 20, 5, 17, 4, 17, 4, 19, 17, 0, 8, 13, 15, 8, 4, 3, 18, 19, 8, 17, 4, 17, 17, 4, 13, 3, 4, 21, 8, 21, 4, 25, 15, 4, 17, 3, 18, 21, 8, 21, 17, 0, 5, 0, 2, 14, 13, 21, 4, 2, 20, 4, 21, 4, 2, 20, 19, 21, 4, 2, 20, 18, 19, 14, 12, 1, 4, 2, 14, 19, 4, 18, 19, 0, 1, 11, 4, 0, 13, 13, 4, 4, 9, 14, 20, 4, 25, 4, 13, 21, 8, 4, 15, 4, 17, 3, 4, 0, 18, 18, 8, 18, 0, 8, 3, 4, 25, 9, 14, 20, 4, 4, 9, 14, 20, 0, 8, 9, 14, 20, 4, 18, 9, 14, 20, 0, 19, 4, 13, 19, 17, 0, 3, 14, 20, 19, 4, 19, 14, 12, 1, 0, 12, 0, 13, 6, 4, 15, 4, 20, 17, 18, 4, 2, 17, 8, 19, 8, 3, 4, 4, 18, 12, 4, 17, 2, 8, 12, 14, 13, 19, 4, 0, 8, 3, 4, 4, 17, 14, 20, 19, 4, 0, 8, 3, 4, 18, 0, 8, 3, 0, 8, 0, 8, 3, 0, 19, 19, 8, 17, 4, 25, 15, 11, 4, 8, 13, 2, 0, 20, 18, 4, 19, 8, 17, 4, 18, 19, 8, 17, 4, 4, 15, 14, 17, 19, 0, 13, 14, 8, 17, 4, 19, 8, 17, 0, 8, 19, 8, 17, 0, 19, 19, 8, 17, 0, 18, 18, 14, 17, 19, 4, 15, 0, 24, 4, 17, 15, 14, 18, 4, 17, 15, 11, 0, 8, 18, 0, 18, 18, 8, 19, 14, 17, 3, 17, 4, 11, 0, 1, 0, 18, 1, 11, 0, 13, 2, 6, 4, 13, 17, 4, 21, 14, 8, 2, 8, 11, 8, 21, 17, 4, 13, 14, 8, 17, 18, 21, 4, 17, 17, 4, 15, 8, 4, 2, 4, 3, 14, 17, 12, 8, 12, 14, 13, 19, 0, 0, 20, 2, 20, 13, 4, 2, 17, 8, 18, 11, 14, 13, 6, 18, 2, 7, 8, 4, 13, 4, 2, 14, 11, 4, 18, 0, 11, 20, 19, 15, 14, 18, 4, 4, 0, 15, 17, 4, 18, 3, 14, 17, 12, 4, 6, 0, 17, 3, 4, 15, 14, 18, 4, 25, 17, 14, 20, 6, 4, 15, 0, 17, 19, 18, 15, 0, 17, 20, 19, 1, 20, 21, 4, 25, 15, 14, 18, 4, 18, 18, 0, 11, 11, 4, 5, 14, 20, 19, 20, 15, 14, 18, 0, 8, 11, 4, 21, 4, 25, 11, 8, 18, 4, 25, 15, 14, 18, 0, 19, 11, 4, 21, 4, 4, 15, 14, 18, 0, 18, 1, 14, 8, 21, 4, 1, 14, 8, 17, 0, 9, 4, 19, 19, 4, 18, 14, 4, 20, 17, 11, 4, 21, 0, 8, 5, 14, 11, 11, 4, 1, 20, 12, 4, 18, 11, 4, 21, 4, 18, 1, 20, 18, 18, 4, 19, 17, 20, 2, 18, 19, 14, 20, 19, 18, 19, 24, 15, 4, 18, 11, 8, 17, 0, 8, 11, 8, 17, 0, 18, 6, 0, 17, 3, 0, 11, 8, 18, 4, 18, 11, 4, 21, 0, 19, 11, 8, 17, 4, 25, 11, 20, 12, 4, 18, 6, 0, 6, 13, 4, 4, 5, 5, 4, 19, 15, 0, 24, 4, 25, 5, 14, 20, 19, 4, 15, 0, 24, 4, 4, 15, 0, 24, 4, 18, 15, 0, 17, 20, 4, 15, 0, 17, 20, 18, 15, 0, 24, 0, 8, 15, 0, 24, 0, 19, 1, 14, 20, 19, 18, 9, 4, 19, 4, 4, 19, 14, 20, 17, 18, 9, 4, 19, 4, 25, 12, 4, 17, 3, 4, 11, 8, 1, 17, 4, 9, 4, 19, 4, 18, 9, 4, 19, 0, 8, 11, 8, 4, 20, 23, 15, 17, 4, 19, 4, 9, 4, 19, 0, 19, 9, 4, 19, 0, 18, 15, 17, 4, 19, 18, 7, 14, 19, 4, 11, 6, 4, 18, 19, 4, 18, 0, 13, 6, 18, 0, 17, 12, 4, 18, 5, 0, 20, 19, 4, 14, 12, 1, 17, 4, 17, 8, 0, 8, 19, 5, 4, 17, 12, 4, 14, 13, 2, 11, 4, 9, 14, 11, 8, 4, 3, 4, 1, 20, 19, 5, 14, 17, 12, 4, 6, 0, 6, 13, 0, 15, 0, 17, 12, 8, 5, 17, 14, 8, 3, 15, 7, 14, 19, 14, 17, 8, 4, 13, 19, 17, 8, 0, 8, 18, 15, 17, 8, 4, 17, 3, 17, 14, 11, 4, 17, 8, 14, 13, 18, 17, 8, 17, 0, 8, 3, 14, 8, 6, 19, 17, 8, 17, 0, 18, 17, 8, 17, 4, 25, 17, 8, 12, 4, 18, 17, 8, 8, 4, 25, 5, 4, 17, 12, 0, 2, 7, 4, 5, 18, 2, 11, 0, 8, 17, 14, 3, 4, 20, 17, 2, 14, 20, 17, 19, 2, 8, 4, 11, 18, 11, 8, 4, 20, 18, 6, 17, 0, 21, 4, 2, 0, 2, 7, 4, 8, 12, 0, 6, 4, 17, 4, 2, 20, 19, 2, 14, 20, 17, 20, 2, 14, 20, 17, 18, 2, 17, 8, 4, 17, 9, 0, 12, 1, 4, 18, 8, 6, 13, 4, 18, 0, 20, 21, 4, 17, 4, 2, 20, 18, 15, 17, 8, 4, 25, 17, 4, 2, 20, 4, 1, 0, 19, 19, 20, 11, 8, 6, 13, 4, 15, 17, 8, 4, 18, 21, 14, 11, 4, 17, 15, 17, 8, 0, 8, 15, 17, 8, 4, 4, 15, 17, 8, 0, 19, 0, 6, 8, 17, 0, 21, 0, 11, 20, 19, 21, 0, 11, 4, 25, 18, 2, 4, 13, 4, 18, 20, 5, 5, 8, 2, 0, 17, 19, 4, 21, 0, 11, 20, 4, 2, 14, 20, 17, 4, 5, 8, 11, 12, 18, 17, 4, 12, 8, 18, 0, 17, 1, 17, 4, 5, 0, 2, 4, 18, 2, 7, 4, 17, 4, 12, 0, 17, 8, 18, 4, 19, 0, 19, 18, 1, 14, 20, 6, 4, 17, 4, 21, 4, 18, 12, 8, 11, 11, 4, 2, 0, 2, 7, 0, 1, 14, 8, 19, 4, 5, 17, 14, 13, 19, 7, 0, 20, 19, 4, 18, 4, 11, 14, 13, 2, 7, 4, 17, 18, 17, 4, 12, 8, 19, 0, 3, 14, 17, 4, 19, 0, 13, 19, 4, 17, 4, 12, 4, 19, 3, 4, 13, 19, 18, 7, 14, 13, 19, 4, 2, 0, 5, 4, 18, 21, 8, 13, 6, 19, 2, 17, 8, 4, 25, 9, 14, 11, 8, 18, 2, 17, 8, 4, 18, 2, 17, 8, 0, 8, 0, 21, 8, 14, 13, 19, 0, 8, 17, 4, 0, 12, 4, 13, 4, 2, 17, 8, 0, 19, 2, 17, 8, 4, 4, 3, 17, 14, 8, 19, 1, 0, 18, 18, 4, 5, 11, 8, 2, 18, 1, 11, 4, 20, 4, 2, 14, 20, 15, 4, 21, 4, 13, 3, 20, 3, 20, 17, 4, 18, 18, 0, 20, 21, 0, 1, 14, 17, 3, 18, 5, 14, 17, 19, 4, 21, 14, 11, 4, 4, 1, 0, 11, 11, 4, 2, 14, 8, 13, 18, 19, 4, 11, 11, 4, 21, 14, 11, 4, 18, 15, 14, 2, 7, 4, 18, 14, 20, 17, 8, 3, 0, 12, 4, 18, 5, 11, 4, 20, 17, 12, 0, 17, 8, 4, 21, 14, 11, 4, 25, 2, 7, 14, 8, 23, 21, 14, 11, 0, 8, 21, 4, 13, 3, 18, 21, 14, 11, 0, 19, 0, 12, 20, 18, 4, 1, 11, 4, 20, 18, 18, 20, 15, 4, 17, 15, 11, 20, 8, 4, 2, 4, 18, 18, 4, 15, 14, 18, 19, 4, 21, 4, 13, 19, 18, 2, 14, 20, 15, 0, 2, 0, 18, 18, 4, 17, 4, 21, 20, 4, 0, 15, 15, 4, 11, 12, 0, 17, 8, 0, 17, 4, 21, 20, 18, 18, 0, 11, 4, 18, 21, 4, 13, 3, 4, 17, 4, 21, 4, 17, 7, 0, 20, 19, 18, 19, 0, 8, 18, 4, 19, 0, 8, 17, 0, 18, 0, 20, 19, 4, 19, 20, 12, 4, 18, 12, 4, 13, 19, 8, 2, 7, 0, 20, 3, 15, 4, 0, 20, 23, 6, 11, 0, 2, 4, 5, 4, 19, 4, 18, 18, 4, 17, 17, 4, 3, 4, 18, 8, 17, 4, 19, 17, 4, 18, 0, 12, 4, 13, 0, 12, 4, 13, 4, 17, 11, 0, 2, 7, 4, 11, 4, 21, 17, 4, 18, 0, 13, 19, 4, 11, 0, 13, 2, 4, 11, 4, 6, 4, 17, 17, 14, 1, 4, 18, 11, 0, 13, 2, 0, 2, 7, 0, 19, 18, 19, 4, 13, 3, 20, 14, 18, 0, 8, 19, 18, 0, 20, 19, 0, 11, 0, 2, 7, 0, 7, 8, 21, 4, 17, 0, 6, 4, 13, 19, 1, 0, 13, 3, 4, 5, 14, 17, 19, 18, 5, 14, 17, 4, 19, 15, 8, 19, 8, 4, 6, 14, 18, 18, 4, 5, 14, 20, 11, 4, 7, 4, 17, 1, 4, 0, 12, 20, 18, 0, 1, 17, 20, 11, 4, 2, 0, 11, 12, 4, 21, 8, 3, 4, 18, 14, 1, 9, 4, 19, 1, 4, 1, 4, 18, 2, 4, 18, 18, 0, 18, 0, 11, 14, 13, 14, 18, 0, 8, 18, 2, 17, 8, 12, 4, 2, 0, 18, 18, 0, 17, 4, 21, 4, 25, 6, 20, 4, 17, 4, 17, 0, 3, 8, 14, 4, 13, 5, 4, 17, 19, 4, 13, 3, 18, 19, 4, 13, 19, 4, 2, 7, 0, 12, 15, 17, 8, 17, 4, 18, 17, 4, 21, 4, 4, 14, 18, 4, 13, 19, 15, 11, 0, 6, 4, 17, 4, 21, 0, 8, 4, 19, 0, 6, 4, 14, 18, 0, 13, 19, 17, 4, 21, 0, 19, 21, 4, 17, 19, 4, 17, 4, 15, 0, 18, 12, 4, 13, 4, 4, 14, 18, 4, 17, 0, 17, 14, 20, 11, 4, 15, 14, 8, 3, 18, 19, 17, 14, 20, 18, 14, 18, 14, 13, 18, 12, 14, 17, 19, 4, 14, 18, 8, 4, 25, 19, 4, 13, 3, 4, 14, 18, 4, 4, 18, 9, 14, 8, 4, 18, 9, 20, 17, 4, 17, 15, 17, 4, 21, 20, 12, 4, 13, 4, 18, 2, 0, 12, 15, 18, 5, 17, 0, 8, 18, 12, 4, 13, 4, 25, 3, 0, 13, 18, 4, 5, 20, 12, 4, 17, 12, 4, 13, 19, 4, 7, 4, 17, 14, 18, 0, 3, 14, 17, 0, 17, 14, 20, 11, 0, 12, 4, 13, 0, 8, 12, 4, 13, 0, 19, 9, 20, 17, 4, 25, 5, 8, 11, 4, 17, 12, 14, 17, 19, 18, 17, 8, 2, 7, 4, 9, 20, 17, 4, 18, 13, 4, 8, 6, 4, 3, 0, 13, 18, 0, 6, 17, 8, 18, 4, 21, 4, 17, 19, 18, 9, 20, 17, 4, 4, 9, 20, 17, 0, 8, 6, 14, 17, 6, 4, 18, 4, 2, 7, 4, 15, 0, 6, 4, 18, 11, 14, 20, 17, 3, 6, 14, 20, 19, 18, 1, 8, 4, 17, 4, 9, 0, 20, 13, 4, 19, 4, 13, 19, 0, 4, 23, 0, 2, 19, 1, 0, 8, 13, 18, 3, 20, 17, 4, 17, 1, 17, 20, 11, 0, 19, 14, 8, 11, 4, 6, 4, 13, 14, 20, 2, 0, 11, 12, 0, 2, 4, 13, 19, 18, 18, 14, 12, 12, 4, 4, 21, 8, 19, 4, 18, 14, 13, 13, 4, 5, 14, 11, 8, 4, 11, 0, 12, 15, 4, 11, 0, 17, 6, 4, 19, 17, 0, 2, 4, 18, 4, 8, 13, 18, 11, 0, 21, 4, 17, 13, 14, 19, 4, 18, 0, 21, 14, 20, 4, 1, 8, 4, 13, 18, 5, 0, 8, 12, 18, 5, 8, 23, 4, 17, 13, 4, 20, 21, 4, 4, 21, 8, 19, 0, 2, 17, 14, 8, 23, 12, 4, 19, 17, 4, 9, 20, 6, 4, 17, 5, 8, 11, 4, 25, 0, 17, 17, 4, 19, 19, 8, 19, 17, 4, 11, 0, 17, 12, 4, 12, 4, 11, 4, 17, 21, 4, 18, 19, 4, 15, 14, 12, 12, 4, 17, 4, 6, 11, 4, 2, 14, 20, 19, 4, 5, 8, 11, 4, 18, 5, 8, 11, 4, 4, 5, 8, 11, 0, 8, 15, 8, 17, 4, 18, 5, 20, 12, 4, 25, 16, 20, 4, 20, 4, 5, 8, 23, 4, 18, 5, 8, 11, 0, 19, 13, 4, 20, 5, 18, 16, 20, 4, 11, 18, 4, 13, 13, 20, 8, 2, 14, 11, 11, 4, 2, 17, 4, 4, 17, 19, 14, 8, 19, 18, 5, 20, 12, 4, 4, 11, 8, 18, 19, 4, 5, 8, 23, 4, 4, 15, 0, 8, 13, 18, 2, 14, 20, 11, 4, 5, 20, 12, 0, 8, 17, 14, 11, 4, 18, 5, 20, 12, 0, 19, 2, 17, 8, 18, 4, 12, 4, 11, 4, 4, 17, 0, 17, 4, 18, 4, 11, 4, 21, 4, 18, 14, 8, 13, 18, 5, 20, 18, 8, 11, 18, 14, 13, 13, 0, 17, 4, 8, 13, 4, 8, 3, 8, 14, 19, 1, 0, 8, 18, 4, 16, 20, 0, 17, 19, 3, 20, 17, 4, 4, 18, 14, 20, 2, 8, 3, 20, 17, 0, 19, 12, 4, 11, 4, 18, 5, 8, 23, 4, 25, 18, 24, 12, 15, 0, 5, 8, 23, 0, 8, 0, 12, 0, 13, 19, 2, 14, 20, 11, 0, 6, 17, 0, 2, 4, 5, 8, 23, 0, 19, 5, 8, 4, 17, 4, 5, 14, 17, 2, 4, 21, 8, 4, 8, 11, 17, 4, 15, 14, 18, 6, 4, 13, 8, 4, 12, 4, 11, 4, 25, 15, 8, 18, 19, 4, 2, 17, 4, 21, 4, 15, 14, 13, 19, 18, 12, 8, 13, 2, 4, 4, 11, 4, 21, 0, 12, 0, 18, 18, 4, 19, 0, 15, 4, 17, 3, 14, 20, 19, 0, 12, 4, 11, 0, 8, 12, 4, 11, 0, 19, 7, 0, 8, 13, 4, 20, 18, 8, 13, 4, 0, 21, 14, 20, 0, 2, 14, 11, 11, 0, 12, 14, 24, 4, 13, 15, 11, 0, 2, 0, 2, 7, 8, 4, 17, 15, 14, 8, 11, 18, 1, 0, 8, 18, 0, 11, 24, 2, 4, 4, 2, 14, 12, 19, 4, 9, 20, 6, 4, 25, 1, 14, 12, 1, 4, 9, 20, 6, 4, 0, 15, 0, 17, 8, 4, 5, 20, 24, 4, 25, 5, 8, 4, 17, 18, 19, 4, 17, 12, 4, 9, 20, 6, 4, 4, 4, 2, 11, 0, 19, 18, 8, 6, 13, 0, 18, 8, 4, 6, 4, 9, 20, 6, 4, 18, 21, 8, 17, 4, 17, 12, 0, 17, 17, 4, 18, 19, 24, 11, 4, 15, 14, 8, 13, 6, 15, 20, 17, 4, 18, 15, 14, 19, 4, 18, 17, 14, 18, 4, 18, 0, 13, 6, 4, 18, 15, 17, 4, 19, 0, 21, 14, 8, 4, 18, 5, 20, 8, 4, 18, 5, 20, 8, 17, 0, 0, 2, 19, 4, 18, 0, 8, 11, 4, 18, 5, 14, 17, 12, 0, 4, 19, 4, 13, 3, 3, 17, 0, 15, 18, 1, 14, 20, 11, 4, 11, 0, 21, 4, 4, 7, 20, 17, 11, 4, 2, 17, 4, 4, 4, 4, 15, 14, 20, 23, 2, 17, 4, 21, 0, 4, 15, 0, 8, 18, 2, 14, 17, 3, 4, 15, 0, 19, 19, 4, 11, 0, 21, 4, 25, 0, 3, 8, 4, 20, 13, 14, 12, 12, 4, 5, 8, 13, 4, 18, 21, 0, 18, 19, 4, 15, 4, 8, 13, 19, 1, 0, 17, 1, 4, 11, 0, 21, 4, 18, 13, 20, 0, 6, 4, 14, 4, 20, 5, 18, 15, 11, 4, 20, 19, 2, 17, 4, 4, 18, 18, 14, 13, 6, 4, 18, 4, 17, 8, 4, 11, 0, 21, 0, 8, 11, 8, 21, 17, 0, 21, 8, 19, 17, 4, 6, 4, 13, 4, 17, 5, 14, 17, 2, 0, 12, 8, 13, 4, 18, 11, 4, 2, 14, 13, 1, 17, 8, 18, 4, 17, 4, 6, 11, 0, 15, 8, 16, 20, 4, 5, 17, 20, 8, 19, 3, 8, 13, 4, 25, 18, 0, 11, 20, 4, 12, 0, 19, 2, 7, 17, 20, 18, 18, 4, 2, 17, 4, 4, 25, 17, 0, 13, 6, 4, 3, 8, 13, 4, 18, 2, 17, 4, 0, 8, 2, 17, 4, 0, 19, 3, 14, 20, 25, 4, 4, 6, 0, 17, 3, 3, 8, 13, 0, 8, 18, 20, 4, 20, 17, 3, 8, 13, 0, 19, 19, 0, 2, 7, 4, 4, 19, 20, 3, 4, 20, 13, 8, 19, 4, 20, 19, 8, 11, 4, 18, 14, 20, 15, 4, 19, 20, 4, 20, 17, 6, 4, 13, 4, 4, 7, 20, 17, 11, 0, 5, 17, 8, 2, 18, 19, 4, 11, 4, 18, 3, 4, 12, 14, 13, 6, 0, 17, 4, 18, 17, 0, 19, 4, 17, 11, 20, 13, 4, 18, 6, 4, 13, 4, 25, 6, 4, 13, 4, 18, 2, 14, 20, 19, 0, 21, 8, 21, 4, 18, 19, 0, 15, 4, 25, 5, 8, 2, 7, 4, 21, 8, 17, 4, 4, 15, 4, 17, 19, 4, 19, 0, 15, 4, 4, 21, 8, 17, 4, 25, 2, 7, 4, 17, 8, 19, 14, 17, 19, 18, 19, 0, 15, 4, 18, 0, 13, 6, 11, 4, 19, 0, 15, 0, 8, 17, 0, 24, 14, 13, 6, 4, 13, 0, 19, 4, 23, 8, 6, 4, 1, 11, 14, 13, 3, 21, 8, 17, 4, 18, 5, 8, 2, 7, 0, 0, 3, 12, 8, 18, 12, 14, 16, 20, 4, 21, 8, 3, 4, 17, 18, 20, 2, 17, 4, 11, 8, 13, 6, 4, 11, 20, 4, 20, 17, 11, 20, 19, 19, 4, 21, 8, 17, 0, 19, 21, 8, 17, 0, 8, 1, 0, 18, 4, 18, 18, 0, 11, 20, 0, 11, 0, 8, 19, 18, 21, 0, 6, 20, 4, 15, 4, 8, 13, 18, 2, 7, 20, 19, 4, 12, 14, 12, 4, 18, 12, 14, 16, 20, 0, 15, 14, 17, 19, 18, 4, 13, 5, 20, 8, 5, 20, 8, 19, 4, 1, 17, 8, 18, 0, 11, 20, 13, 3, 8, 19, 0, 23, 8, 18, 17, 14, 12, 15, 20, 0, 6, 8, 19, 4, 14, 1, 4, 8, 17, 3, 4, 12, 8, 4, 15, 8, 16, 20, 0, 0, 21, 0, 11, 4, 15, 0, 11, 4, 18, 20, 18, 0, 6, 4, 7, 4, 11, 0, 18, 15, 4, 13, 3, 20, 17, 14, 13, 3, 4, 7, 20, 8, 11, 4, 12, 4, 19, 17, 14, 17, 0, 13, 6, 18, 0, 3, 12, 4, 19, 18, 20, 1, 8, 17, 15, 11, 20, 12, 4, 11, 0, 15, 8, 13, 19, 0, 1, 0, 2, 13, 20, 16, 20, 4, 1, 17, 4, 21, 4, 21, 14, 8, 11, 4, 2, 7, 0, 13, 19, 1, 17, 0, 21, 4, 2, 4, 13, 18, 4, 2, 4, 3, 4, 17, 1, 17, 20, 13, 4, 12, 4, 19, 0, 11, 18, 14, 20, 17, 3, 18, 4, 23, 4, 18, 0, 3, 12, 8, 19, 1, 4, 19, 4, 18, 15, 4, 18, 4, 17, 25, 14, 13, 4, 18, 19, 4, 23, 19, 4, 17, 4, 2, 8, 19, 15, 8, 4, 6, 4, 0, 6, 8, 19, 0, 16, 20, 0, 8, 18, 13, 14, 12, 12, 0, 3, 8, 6, 13, 4, 12, 14, 17, 3, 20, 18, 4, 20, 8, 11, 0, 21, 0, 11, 0, 13, 4, 17, 5, 18, 15, 14, 20, 11, 4, 12, 0, 11, 8, 13, 18, 14, 17, 19, 18, 11, 8, 4, 13, 18, 17, 4, 20, 13, 8, 11, 4, 13, 19, 4, 6, 0, 5, 5, 4, 0, 2, 2, 4, 18, 21, 8, 3, 4, 4, 17, 14, 13, 3, 18, 17, 0, 21, 8, 17, 17, 0, 19, 4, 4, 17, 0, 19, 4, 25, 14, 1, 4, 8, 18, 21, 8, 3, 4, 25, 6, 0, 13, 19, 18, 14, 1, 4, 8, 19, 17, 0, 19, 4, 18, 13, 14, 1, 11, 4, 12, 8, 3, 8, 18, 17, 0, 19, 0, 8, 2, 14, 20, 3, 4, 12, 4, 18, 18, 4, 17, 0, 21, 8, 19, 21, 8, 3, 0, 8, 15, 4, 13, 3, 4, 15, 4, 13, 3, 18, 12, 14, 17, 3, 18, 17, 4, 5, 8, 19, 21, 8, 3, 0, 18, 1, 17, 4, 5, 18, 14, 2, 4, 0, 13, 11, 14, 20, 15, 18, 3, 17, 0, 12, 4, 5, 14, 13, 2, 4, 21, 4, 17, 18, 4, 11, 14, 20, 4, 17, 3, 4, 15, 8, 19, 0, 12, 8, 4, 18, 19, 0, 18, 18, 4, 17, 4, 5, 8, 18, 15, 14, 4, 19, 4, 3, 4, 2, 14, 17, 17, 14, 12, 15, 19, 15, 4, 13, 19, 4, 21, 4, 17, 18, 0, 14, 17, 0, 6, 4, 17, 14, 20, 4, 18, 2, 11, 20, 1, 18, 2, 0, 3, 17, 4, 1, 0, 13, 2, 18, 15, 11, 0, 19, 4, 2, 20, 8, 17, 18, 0, 21, 0, 13, 19, 20, 13, 8, 14, 13, 17, 14, 12, 15, 18, 6, 14, 20, 19, 4, 2, 14, 13, 13, 4, 4, 2, 0, 17, 19, 1, 14, 18, 18, 4, 0, 2, 8, 4, 17, 17, 14, 12, 15, 4, 15, 4, 18, 4, 25, 4, 2, 7, 4, 2, 9, 4, 20, 3, 8, 2, 17, 20, 4, 11, 15, 4, 18, 4, 18, 1, 17, 20, 13, 18, 1, 0, 6, 20, 4, 4, 6, 0, 11, 4, 15, 4, 18, 4, 4, 13, 20, 11, 11, 4, 18, 8, 13, 6, 4, 18, 20, 17, 6, 8, 17, 4, 12, 20, 4, 15, 4, 18, 0, 19, 15, 4, 18, 0, 8, 5, 8, 11, 4, 19, 11, 4, 13, 19, 18, 12, 14, 17, 3, 4, 21, 4, 17, 19, 20, 18, 0, 8, 13, 19, 15, 14, 20, 2, 4, 7, 8, 15, 15, 14, 1, 14, 19, 19, 4, 19, 14, 19, 0, 11, 7, 0, 8, 17, 0, 0, 1, 17, 8, 18, 2, 7, 8, 4, 18, 7, 0, 8, 4, 18, 14, 1, 4, 8, 4, 17, 4, 12, 20, 0, 18, 15, 14, 17, 19, 3, 0, 19, 4, 18, 2, 7, 8, 4, 25, 21, 8, 11, 11, 0, 2, 7, 8, 4, 4, 0, 20, 1, 4, 18, 15, 14, 4, 12, 4, 17, 0, 18, 4, 17, 13, 14, 19, 4, 17, 3, 8, 17, 4, 18, 17, 4, 8, 13, 18, 5, 4, 18, 18, 4, 18, 20, 1, 8, 19, 12, 14, 3, 4, 18, 11, 8, 4, 4, 18, 19, 8, 4, 3, 4, 2, 11, 4, 5, 18, 1, 14, 18, 18, 0, 21, 4, 19, 20, 4, 4, 2, 17, 0, 13, 1, 17, 20, 12, 4, 11, 8, 0, 8, 19, 18, 20, 1, 8, 18, 9, 14, 20, 8, 17, 17, 4, 4, 11, 18, 15, 11, 0, 19, 18, 15, 14, 12, 15, 4, 1, 0, 17, 17, 4, 2, 4, 3, 4, 25, 13, 14, 19, 4, 25, 0, 21, 17, 8, 11, 12, 14, 2, 7, 4, 9, 14, 8, 13, 19, 6, 0, 2, 7, 4, 2, 4, 3, 0, 8, 5, 0, 2, 7, 4, 21, 0, 8, 13, 4, 5, 11, 0, 13, 2, 2, 4, 3, 4, 18, 2, 4, 3, 4, 4, 2, 4, 3, 0, 19, 6, 17, 0, 8, 13, 18, 20, 1, 8, 4, 18, 0, 6, 4, 18, 14, 5, 5, 17, 4, 15, 17, 8, 21, 4, 9, 20, 8, 21, 4, 11, 0, 8, 13, 4, 19, 4, 18, 19, 18, 11, 8, 4, 13, 19, 15, 20, 13, 8, 17, 13, 0, 6, 4, 17, 6, 14, 20, 19, 0, 15, 0, 17, 2, 18, 11, 8, 0, 8, 18, 21, 4, 19, 20, 18, 4, 6, 0, 20, 23, 11, 8, 4, 17, 0, 11, 8, 14, 13, 18, 12, 0, 8, 17, 4, 10, 8, 11, 14, 18, 1, 0, 19, 14, 13, 5, 20, 19, 20, 17, 1, 0, 17, 14, 13, 19, 0, 20, 11, 4, 15, 20, 8, 19, 18, 9, 14, 8, 13, 18, 3, 4, 12, 8, 18, 2, 0, 13, 13, 4, 17, 20, 8, 13, 4, 15, 17, 14, 8, 4, 12, 4, 5, 8, 4, 21, 0, 8, 13, 18, 2, 8, 1, 11, 4, 12, 0, 6, 8, 4, 11, 14, 20, 4, 4, 21, 4, 8, 13, 4, 5, 4, 19, 4, 17, 9, 20, 15, 4, 18, 16, 20, 0, 13, 19, 21, 4, 13, 19, 4, 15, 11, 8, 4, 17, 11, 14, 20, 4, 25, 2, 0, 13, 0, 11, 11, 14, 20, 21, 4, 13, 4, 19, 19, 4, 17, 14, 24, 0, 11, 21, 14, 4, 20, 23, 9, 20, 8, 5, 18, 14, 13, 6, 11, 4, 17, 0, 8, 3, 4, 18, 4, 8, 25, 4, 11, 14, 20, 4, 18, 5, 11, 14, 19, 18, 2, 14, 13, 6, 4, 11, 14, 20, 0, 8, 12, 0, 17, 3, 8, 17, 0, 18, 4, 4, 14, 15, 4, 17, 0, 15, 0, 20, 18, 4, 13, 14, 19, 0, 8, 19, 0, 11, 14, 13, 0, 18, 8, 11, 4, 1, 4, 13, 8, 18, 4, 19, 0, 11, 4, 19, 20, 24, 0, 20, 13, 14, 19, 4, 4, 21, 4, 19, 8, 17, 0, 15, 15, 20, 8, 17, 0, 18, 4, 18, 11, 20, 19, 19, 0, 12, 14, 19, 8, 5, 21, 8, 18, 4, 17, 0, 20, 19, 14, 18, 5, 14, 13, 2, 0, 1, 4, 13, 8, 4, 4, 2, 17, 8, 0, 17, 0, 2, 4, 18, 2, 14, 3, 4, 18, 21, 14, 12, 8, 17, 7, 0, 1, 8, 19, 3, 4, 20, 8, 11, 4, 18, 18, 0, 8, 15, 11, 14, 12, 1, 3, 4, 6, 17, 4, 13, 4, 21, 4, 20, 1, 14, 13, 19, 4, 14, 20, 1, 11, 8, 4, 19, 0, 11, 0, 1, 4, 13, 8, 17, 17, 0, 18, 4, 25, 15, 8, 18, 18, 4, 12, 14, 8, 13, 4, 21, 14, 24, 14, 20, 21, 8, 18, 4, 25, 17, 0, 18, 0, 8, 1, 20, 19, 4, 17, 13, 14, 24, 4, 4, 13, 0, 13, 0, 18, 17, 4, 5, 20, 18, 21, 4, 19, 4, 25, 17, 4, 6, 13, 4, 6, 20, 8, 3, 4, 21, 4, 19, 8, 19, 3, 8, 21, 8, 13, 21, 4, 19, 8, 18, 4, 13, 2, 17, 4, 19, 0, 17, 3, 4, 2, 14, 6, 13, 4, 2, 14, 19, 14, 13, 17, 4, 6, 13, 0, 21, 8, 14, 11, 4, 15, 0, 13, 13, 4, 21, 4, 11, 14, 18, 15, 17, 14, 5, 18, 15, 11, 8, 4, 4, 1, 4, 13, 8, 19, 13, 14, 24, 4, 18, 5, 0, 2, 7, 0, 11, 0, 18, 18, 4, 1, 8, 1, 11, 4, 15, 14, 17, 2, 18, 15, 8, 11, 4, 18, 1, 11, 14, 2, 18, 12, 14, 17, 0, 11, 1, 14, 20, 4, 18, 8, 13, 3, 4, 23, 15, 4, 17, 2, 4, 5, 17, 0, 13, 2, 15, 11, 8, 4, 18, 21, 4, 13, 6, 4, 2, 0, 6, 4, 18, 12, 20, 4, 19, 18, 6, 0, 2, 7, 0, 12, 4, 2, 7, 4, 18, 14, 8, 5, 18, 19, 17, 14, 13, 2, 3, 0, 11, 11, 4, 15, 17, 8, 21, 0, 22, 0, 6, 14, 13, 4, 15, 4, 4, 18, 9, 14, 20, 8, 19, 18, 0, 2, 17, 4, 21, 8, 18, 4, 18, 17, 8, 21, 4, 18, 18, 0, 21, 14, 13, 4, 2, 7, 14, 18, 13, 14, 8, 4, 18, 12, 14, 11, 11, 4, 19, 0, 17, 3, 0, 17, 4, 0, 6, 8, 13, 14, 24, 4, 25, 4, 19, 0, 15, 4, 21, 8, 18, 4, 4, 15, 8, 18, 18, 0, 15, 11, 8, 4, 25, 21, 8, 18, 0, 8, 11, 0, 12, 4, 18, 9, 14, 20, 8, 18, 15, 20, 13, 8, 19, 9, 14, 20, 4, 19, 2, 14, 15, 8, 4, 13, 14, 2, 4, 18, 6, 0, 8, 4, 18, 0, 17, 12, 4, 4, 5, 14, 13, 3, 20, 15, 11, 8, 0, 8, 2, 11, 14, 20, 18, 15, 11, 8, 0, 19, 5, 8, 2, 7, 20, 7, 0, 19, 4, 18, 15, 4, 19, 4, 17, 2, 8, 21, 8, 11, 18, 14, 8, 4, 18, 11, 8, 18, 18, 4, 15, 11, 0, 8, 4, 8, 12, 8, 19, 4, 2, 7, 14, 20, 23, 14, 19, 0, 8, 19, 2, 14, 6, 13, 0, 15, 0, 20, 12, 4, 18, 19, 0, 17, 18, 18, 0, 20, 2, 4, 17, 0, 6, 4, 18, 20, 18, 0, 8, 19, 3, 4, 2, 20, 4, 2, 7, 0, 17, 18, 6, 4, 12, 8, 19, 0, 17, 12, 4, 17, 8, 3, 4, 0, 11, 14, 15, 4, 17, 4, 14, 19, 0, 13, 19, 2, 14, 13, 2, 20, 11, 0, 8, 3, 4, 15, 7, 0, 17, 4, 13, 4, 0, 13, 19, 20, 18, 4, 13, 19, 0, 17, 12, 4, 25, 20, 18, 4, 4, 18, 21, 8, 17, 20, 18, 21, 8, 14, 11, 0, 18, 4, 2, 7, 0, 1, 0, 17, 17, 0, 2, 20, 8, 17, 4, 15, 8, 15, 4, 18, 15, 0, 17, 8, 18, 4, 23, 2, 4, 18, 12, 0, 17, 4, 4, 15, 20, 0, 8, 19, 8, 12, 8, 19, 0, 14, 19, 0, 8, 18, 11, 8, 17, 4, 18, 14, 19, 4, 13, 19, 5, 14, 13, 3, 4, 14, 19, 4, 17, 0, 20, 18, 0, 8, 18, 15, 20, 4, 13, 19, 14, 19, 4, 4, 18, 14, 19, 8, 4, 25, 20, 18, 14, 13, 18, 15, 4, 17, 2, 0, 14, 19, 14, 13, 18, 20, 18, 4, 17, 0, 5, 8, 13, 0, 11, 14, 20, 19, 8, 11, 18, 8, 19, 20, 4, 4, 11, 0, 13, 18, 18, 0, 8, 13, 4, 0, 17, 12, 0, 8, 0, 17, 12, 0, 19, 3, 4, 2, 20, 18, 11, 20, 8, 17, 4, 6, 0, 17, 2, 4, 5, 14, 13, 3, 18, 20, 13, 8, 17, 0, 4, 2, 17, 8, 4, 18, 8, 4, 20, 17, 11, 14, 6, 4, 17, 0, 12, 4, 17, 4, 19, 14, 17, 3, 20, 19, 7, 4, 12, 4, 13, 14, 4, 20, 3, 15, 8, 6, 4, 17, 18, 19, 0, 3, 4, 7, 14, 2, 7, 0, 13, 0, 6, 4, 0, 1, 0, 19, 8, 17, 13, 0, 6, 4, 25, 15, 0, 19, 4, 18, 6, 4, 12, 8, 17, 21, 14, 11, 4, 19, 18, 20, 2, 4, 17, 18, 19, 24, 11, 14, 18, 4, 12, 4, 17, 15, 8, 6, 4, 25, 3, 4, 19, 19, 4, 2, 8, 19, 4, 17, 12, 0, 17, 6, 4, 17, 14, 20, 6, 8, 15, 0, 17, 4, 17, 3, 8, 21, 0, 13, 3, 4, 2, 20, 19, 2, 17, 4, 19, 4, 15, 20, 0, 8, 18, 0, 17, 0, 1, 4, 5, 14, 18, 18, 4, 25, 4, 17, 14, 18, 19, 17, 0, 2, 0, 6, 0, 17, 4, 17, 7, 14, 19, 4, 18, 15, 20, 4, 17, 0, 11, 20, 23, 4, 18, 21, 14, 12, 8, 19, 15, 20, 2, 4, 18, 15, 4, 17, 2, 20, 1, 20, 19, 4, 4, 18, 4, 11, 11, 4, 1, 20, 19, 4, 25, 1, 20, 19, 4, 18, 0, 6, 4, 4, 18, 5, 4, 19, 4, 25, 15, 0, 17, 4, 18, 21, 0, 11, 4, 19, 21, 0, 8, 13, 2, 15, 0, 17, 14, 8, 5, 17, 8, 6, 14, 15, 0, 17, 4, 4, 11, 14, 2, 0, 11, 1, 20, 19, 0, 8, 5, 8, 13, 8, 4, 6, 20, 8, 18, 4, 2, 0, 13, 4, 18, 8, 21, 17, 4, 18, 5, 4, 19, 4, 4, 17, 20, 1, 0, 13, 3, 4, 11, 0, 8, 6, 20, 8, 3, 0, 11, 20, 8, 18, 4, 11, 20, 8, 17, 0, 6, 0, 17, 4, 4, 6, 4, 0, 13, 19, 4, 12, 4, 20, 19, 5, 0, 19, 0, 11, 5, 14, 8, 17, 4, 4, 19, 8, 17, 4, 19, 14, 17, 3, 18, 0, 11, 1, 20, 12, 19, 20, 1, 4, 18, 17, 8, 3, 4, 18, 5, 8, 11, 12, 4, 15, 4, 3, 4, 18, 5, 14, 13, 3, 0, 19, 17, 14, 13, 4, 0, 11, 11, 4, 17, 15, 0, 17, 4, 25, 18, 19, 14, 15, 18, 18, 0, 8, 13, 18, 5, 14, 20, 4, 19, 0, 8, 6, 20, 4, 19, 17, 8, 1, 20, 13, 0, 15, 15, 4, 12, 14, 19, 14, 18, 1, 0, 13, 0, 11, 19, 14, 17, 3, 4, 5, 8, 13, 8, 18, 13, 8, 0, 8, 19, 21, 0, 18, 4, 18, 4, 19, 8, 17, 0, 21, 14, 3, 10, 0, 1, 20, 18, 19, 4, 15, 13, 4, 20, 18, 14, 19, 0, 6, 4, 15, 0, 17, 0, 8, 13, 8, 4, 13, 19, 11, 0, 8, 3, 18, 15, 4, 18, 19, 4, 17, 0, 12, 15, 4, 2, 8, 4, 20, 23, 21, 14, 12, 8, 4, 21, 14, 20, 19, 4, 5, 14, 20, 17, 18, 12, 0, 9, 14, 17, 13, 8, 0, 13, 19, 7, 14, 2, 7, 4, 18, 4, 12, 4, 4, 2, 7, 4, 13, 4, 12, 0, 17, 17, 0, 15, 4, 19, 4, 18, 18, 0, 15, 8, 13, 14, 13, 3, 4, 18, 1, 0, 11, 0, 8, 6, 17, 4, 2, 18, 18, 8, 19, 20, 0, 21, 14, 19, 4, 17, 21, 8, 3, 4, 14, 13, 8, 14, 13, 18, 16, 20, 4, 19, 4, 15, 4, 19, 4, 4, 21, 14, 8, 17, 4, 13, 8, 4, 17, 0, 6, 4, 17, 4, 17, 17, 14, 13, 6, 4, 18, 4, 12, 4, 18, 3, 4, 5, 8, 19, 6, 0, 12, 8, 13, 15, 4, 19, 4, 25, 6, 0, 17, 4, 25, 6, 4, 12, 8, 18, 6, 4, 11, 4, 4, 15, 14, 4, 11, 4, 0, 13, 8, 12, 4, 11, 14, 6, 4, 4, 4, 12, 20, 4, 18, 15, 8, 25, 25, 0, 2, 17, 4, 20, 23, 17, 14, 2, 7, 4, 17, 0, 8, 11, 18, 4, 17, 17, 4, 17, 2, 8, 19, 4, 25, 11, 14, 6, 4, 25, 4, 13, 6, 8, 13, 18, 0, 11, 8, 17, 11, 14, 6, 4, 18, 0, 1, 8, 12, 4, 0, 6, 0, 2, 4, 6, 4, 12, 8, 4, 0, 21, 4, 20, 23, 15, 4, 17, 11, 4, 0, 12, 4, 17, 18, 15, 4, 11, 11, 4, 2, 8, 19, 4, 4, 15, 0, 17, 19, 8, 18, 4, 12, 4, 25, 6, 4, 11, 4, 17, 3, 4, 15, 14, 19, 2, 20, 8, 19, 18, 0, 21, 8, 18, 4, 2, 8, 19, 4, 18, 18, 8, 19, 14, 19, 2, 8, 19, 0, 8, 18, 4, 12, 0, 19, 1, 14, 13, 3, 8, 11, 14, 6, 4, 0, 8, 13, 5, 14, 18, 5, 14, 8, 4, 18, 4, 13, 21, 8, 0, 1, 0, 19, 8, 19, 17, 20, 3, 4, 18, 11, 14, 24, 4, 17, 3, 4, 5, 8, 18, 2, 8, 19, 0, 19, 19, 4, 12, 15, 4, 3, 14, 20, 4, 4, 0, 20, 19, 4, 11, 2, 11, 14, 18, 4, 18, 4, 0, 20, 23, 8, 18, 14, 11, 4, 7, 0, 2, 7, 4, 12, 0, 19, 4, 17, 1, 14, 17, 3, 4, 15, 8, 15, 4, 17, 2, 14, 13, 19, 4, 5, 8, 11, 12, 0, 13, 14, 20, 4, 17, 3, 4, 1, 0, 19, 1, 4, 19, 14, 13, 12, 0, 13, 8, 4, 14, 20, 17, 18, 4, 18, 0, 1, 17, 4, 5, 8, 6, 4, 4, 17, 14, 2, 10, 18, 2, 11, 14, 17, 4, 2, 7, 0, 14, 18, 18, 20, 2, 4, 18, 0, 2, 7, 0, 19, 21, 8, 6, 13, 4, 17, 14, 1, 14, 19, 2, 20, 8, 17, 0, 2, 20, 8, 18, 4, 0, 8, 6, 20, 18, 18, 0, 2, 17, 0, 18, 20, 2, 4, 25, 18, 0, 14, 20, 11, 4, 6, 0, 17, 4, 12, 4, 13, 20, 18, 15, 14, 20, 11, 18, 18, 20, 2, 4, 4, 0, 13, 8, 12, 0, 5, 4, 13, 3, 20, 6, 4, 11, 4, 18, 0, 21, 8, 18, 0, 5, 8, 6, 4, 18, 21, 14, 19, 4, 25, 12, 0, 12, 8, 4, 15, 7, 0, 18, 4, 12, 14, 13, 19, 18, 11, 8, 19, 17, 4, 0, 1, 20, 18, 4, 13, 8, 4, 2, 4, 12, 8, 2, 17, 14, 5, 8, 6, 4, 17, 6, 4, 11, 4, 25, 1, 8, 9, 14, 20, 5, 8, 6, 4, 0, 6, 4, 11, 0, 19, 19, 0, 11, 20, 18, 14, 17, 13, 4, 4, 19, 0, 2, 7, 0, 21, 8, 2, 4, 18, 16, 20, 0, 18, 8, 6, 8, 11, 4, 19, 12, 0, 11, 11, 4, 19, 8, 6, 17, 4, 2, 4, 17, 5, 18, 2, 14, 17, 13, 4, 4, 19, 0, 13, 6, 11, 4, 2, 7, 4, 2, 0, 1, 11, 4, 11, 14, 13, 6, 4, 21, 14, 19, 4, 4, 13, 14, 20, 4, 18, 0, 1, 1, 4, 18, 3, 4, 11, 8, 19, 11, 4, 2, 7, 0, 15, 14, 8, 17, 4, 17, 4, 11, 8, 4, 2, 11, 14, 17, 0, 2, 8, 17, 4, 4, 13, 0, 8, 21, 4, 3, 14, 18, 4, 18, 8, 18, 14, 11, 0, 15, 0, 2, 19, 4, 5, 11, 20, 19, 4, 1, 14, 17, 13, 4, 2, 20, 11, 19, 4, 1, 14, 17, 3, 0, 17, 20, 18, 4, 18, 13, 14, 20, 4, 4, 21, 0, 13, 19, 4, 4, 17, 17, 0, 8, 0, 1, 8, 12, 0, 21, 14, 19, 4, 18, 5, 0, 17, 2, 4, 0, 6, 0, 2, 0, 4, 17, 17, 4, 18, 4, 17, 17, 4, 25, 19, 7, 4, 18, 4, 18, 0, 11, 8, 18, 15, 4, 17, 8, 11, 14, 17, 13, 4, 18, 15, 8, 13, 2, 4, 7, 0, 11, 11, 18, 5, 8, 6, 4, 25, 2, 7, 8, 2, 18, 19, 14, 13, 13, 4, 17, 4, 2, 20, 11, 15, 0, 2, 7, 0, 5, 4, 13, 3, 18, 1, 14, 13, 3, 18, 14, 17, 13, 4, 17, 18, 0, 1, 14, 19, 1, 8, 19, 4, 18, 17, 4, 21, 8, 18, 18, 0, 11, 8, 4, 3, 0, 19, 4, 17, 15, 8, 13, 2, 0, 4, 2, 20, 12, 4, 3, 4, 15, 11, 20, 7, 0, 19, 4, 17, 5, 4, 13, 3, 4, 17, 4, 11, 8, 18, 12, 4, 13, 20, 4, 13, 20, 8, 17, 4, 19, 14, 0, 18, 19, 13, 14, 20, 0, 8, 13, 0, 21, 17, 4, 13, 14, 20, 4, 25, 5, 17, 4, 8, 13, 13, 14, 20, 0, 18, 2, 14, 11, 8, 18, 3, 14, 20, 4, 18, 12, 14, 17, 13, 4, 19, 17, 4, 21, 4, 1, 8, 11, 11, 4, 18, 0, 20, 19, 18, 17, 4, 11, 20, 19, 3, 0, 19, 4, 4, 18, 0, 11, 8, 19, 11, 4, 6, 0, 11, 17, 8, 4, 13, 18, 7, 0, 17, 4, 12, 3, 4, 2, 4, 18, 2, 11, 14, 20, 4, 2, 4, 17, 13, 4, 21, 8, 1, 17, 4, 5, 17, 14, 11, 4, 21, 0, 13, 19, 0, 14, 17, 13, 4, 25, 0, 1, 20, 18, 0, 6, 11, 0, 2, 0, 14, 17, 13, 0, 19, 12, 20, 17, 4, 18, 17, 8, 19, 4, 18, 7, 8, 18, 18, 4, 1, 20, 11, 11, 4, 21, 4, 23, 4, 17, 1, 8, 18, 14, 20, 3, 0, 19, 4, 25, 12, 0, 19, 4, 25, 6, 8, 5, 11, 4, 17, 4, 11, 8, 19, 2, 14, 20, 18, 20, 0, 11, 8, 1, 8, 5, 4, 13, 19, 4, 12, 0, 17, 8, 13, 3, 14, 20, 4, 17, 4, 11, 8, 19, 4, 13, 0, 8, 5, 18, 4, 6, 0, 17, 0, 15, 4, 2, 7, 4, 2, 8, 17, 4, 17, 3, 4, 5, 8, 4, 19, 0, 19, 4, 17, 11, 0, 1, 14, 18, 17, 4, 11, 20, 18, 12, 8, 4, 11, 18, 2, 20, 11, 14, 19, 5, 4, 8, 13, 19, 7, 8, 18, 18, 0, 17, 14, 3, 4, 17, 1, 14, 20, 17, 6, 17, 4, 21, 8, 19, 17, 20, 8, 13, 0, 2, 17, 0, 1, 4, 12, 0, 19, 4, 18, 11, 0, 18, 18, 0, 4, 15, 0, 21, 4, 12, 0, 19, 4, 4, 17, 4, 11, 20, 4, 2, 17, 0, 8, 4, 2, 20, 8, 19, 4, 1, 8, 2, 7, 4, 4, 21, 0, 3, 4, 5, 17, 14, 11, 0, 7, 0, 13, 19, 4, 2, 14, 16, 20, 4, 6, 0, 11, 14, 15, 20, 13, 8, 4, 18, 17, 0, 12, 15, 0, 0, 21, 8, 3, 4, 15, 0, 15, 4, 18, 0, 8, 6, 11, 4, 21, 8, 21, 17, 4, 6, 4, 17, 4, 25, 0, 2, 19, 8, 5, 6, 4, 17, 4, 4, 21, 14, 20, 4, 4, 4, 21, 8, 4, 17, 7, 0, 11, 19, 4, 17, 4, 21, 4, 19, 11, 14, 6, 8, 18, 1, 4, 17, 4, 19, 21, 8, 19, 0, 11, 7, 0, 19, 0, 8, 5, 11, 14, 20, 4, 21, 4, 20, 21, 4, 6, 4, 17, 4, 18, 6, 0, 6, 4, 18, 7, 0, 19, 4, 25, 21, 4, 23, 4, 4, 12, 4, 6, 14, 19, 1, 0, 13, 3, 0, 17, 4, 15, 8, 19, 6, 0, 19, 4, 17, 1, 0, 25, 0, 17, 1, 17, 8, 13, 18, 15, 8, 6, 4, 18, 15, 4, 17, 8, 17, 21, 8, 1, 17, 0, 2, 14, 20, 3, 18, 5, 17, 4, 12, 8, 7, 0, 19, 4, 4, 4, 11, 8, 18, 4, 1, 4, 17, 6, 4, 7, 0, 19, 0, 19, 2, 14, 20, 18, 4, 17, 0, 21, 8, 13, 12, 0, 20, 21, 4, 15, 4, 2, 7, 0, 21, 4, 0, 20, 23, 11, 14, 20, 15, 4, 0, 1, 14, 17, 3, 2, 11, 0, 13, 18, 1, 0, 21, 4, 17, 5, 4, 8, 13, 18, 19, 4, 17, 13, 4, 6, 17, 0, 21, 0, 15, 14, 10, 4, 17, 1, 11, 4, 12, 4, 4, 11, 8, 17, 4, 18, 11, 8, 15, 18, 2, 4, 17, 13, 0, 12, 0, 5, 8, 0, 0, 8, 13, 4, 4, 21, 14, 20, 4, 17, 3, 20, 13, 4, 18, 2, 11, 14, 20, 0, 21, 0, 11, 18, 4, 5, 14, 17, 6, 4, 1, 0, 2, 7, 4, 12, 14, 8, 19, 4, 12, 0, 19, 7, 18, 12, 0, 17, 10, 18, 21, 4, 23, 4, 18, 11, 14, 24, 0, 11, 21, 14, 20, 4, 18, 6, 0, 19, 4, 4, 6, 11, 14, 1, 4, 6, 8, 17, 11, 18, 18, 14, 11, 3, 4, 9, 4, 19, 14, 13, 21, 4, 23, 4, 25, 5, 11, 14, 20, 18, 13, 0, 19, 0, 11, 4, 12, 4, 19, 18, 11, 4, 21, 4, 17, 12, 24, 19, 7, 4, 6, 17, 0, 3, 4, 21, 4, 23, 0, 8, 18, 8, 17, 14, 15, 2, 11, 14, 15, 4, 2, 8, 17, 4, 18, 5, 14, 8, 13, 18, 6, 0, 13, 6, 18, 1, 4, 17, 2, 4, 19, 4, 18, 19, 4, 4, 12, 8, 18, 4, 14, 20, 4, 18, 19, 7, 24, 12, 13, 4, 21, 8, 14, 11, 18, 1, 11, 20, 4, 18, 15, 11, 0, 13, 4, 2, 8, 17, 4, 25, 7, 0, 13, 19, 0, 2, 17, 4, 15, 4, 13, 20, 8, 17, 0, 2, 11, 8, 13, 18, 6, 0, 19, 4, 18, 0, 11, 11, 4, 25, 8, 3, 14, 11, 4, 13, 20, 8, 18, 4, 8, 13, 14, 20, 8, 17, 7, 20, 12, 4, 15, 8, 15, 8, 18, 12, 0, 11, 4, 18, 4, 21, 0, 3, 0, 17, 14, 3, 4, 18, 6, 14, 12, 12, 4, 4, 15, 8, 4, 17, 2, 7, 14, 15, 4, 8, 12, 15, 14, 19, 3, 4, 5, 8, 0, 19, 0, 19, 4, 25, 17, 14, 3, 0, 8, 17, 14, 3, 4, 4, 2, 0, 13, 14, 13, 6, 0, 19, 4, 25, 21, 14, 20, 0, 8, 17, 14, 3, 4, 25, 19, 0, 19, 0, 8, 15, 20, 0, 13, 19, 18, 8, 19, 4, 18, 15, 20, 11, 11, 18, 2, 7, 0, 11, 4, 12, 20, 11, 4, 18, 14, 18, 8, 4, 17, 3, 4, 6, 0, 19, 17, 20, 0, 8, 19, 17, 20, 0, 13, 19, 19, 0, 19, 4, 18, 2, 0, 18, 4, 18, 17, 20, 4, 13, 19, 15, 14, 11, 8, 4, 5, 11, 0, 18, 7, 6, 8, 5, 11, 0, 1, 8, 11, 0, 13, 6, 0, 19, 0, 19, 3, 4, 13, 18, 4, 2, 0, 11, 4, 17, 3, 8, 2, 19, 4, 1, 17, 0, 21, 14, 0, 5, 5, 20, 19, 4, 6, 14, 20, 19, 13, 14, 24, 0, 20, 1, 14, 24, 0, 20, 15, 8, 4, 20, 23, 15, 14, 11, 8, 18, 2, 24, 6, 13, 4, 0, 20, 17, 0, 18, 15, 11, 0, 13, 0, 19, 4, 19, 20, 4, 4, 15, 8, 13, 4, 19, 18, 0, 17, 18, 2, 0, 15, 19, 4, 7, 4, 11, 11, 14, 2, 0, 11, 4, 25, 17, 4, 13, 8, 4, 15, 0, 17, 2, 8, 6, 4, 17, 1, 4, 17, 20, 0, 8, 18, 9, 20, 17, 24, 18, 5, 8, 0, 13, 19, 11, 0, 2, 4, 19, 2, 0, 13, 14, 19, 17, 20, 4, 4, 18, 12, 4, 11, 14, 13, 0, 1, 14, 8, 4, 17, 20, 14, 13, 18, 19, 17, 8, 15, 4, 5, 17, 4, 11, 4, 17, 4, 3, 8, 18, 0, 8, 13, 4, 18, 15, 20, 17, 4, 4, 19, 4, 18, 19, 0, 5, 8, 0, 8, 19, 2, 24, 2, 11, 4, 19, 24, 17, 0, 13, 20, 18, 20, 17, 4, 2, 0, 11, 4, 4, 17, 0, 12, 4, 18, 5, 8, 0, 8, 18, 2, 17, 0, 13, 18, 5, 8, 14, 13, 18, 5, 8, 4, 13, 19, 1, 20, 19, 8, 13, 11, 0, 19, 8, 13, 5, 8, 4, 17, 0, 1, 20, 2, 7, 4, 1, 17, 14, 3, 4, 20, 17, 8, 13, 4, 15, 8, 15, 0, 8, 17, 0, 8, 3, 8, 18, 19, 4, 0, 10, 15, 14, 6, 13, 4, 1, 4, 17, 2, 0, 13, 0, 21, 17, 0, 17, 0, 3, 0, 17, 15, 11, 4, 20, 17, 1, 8, 3, 14, 13, 18, 7, 14, 17, 19, 12, 14, 20, 11, 4, 9, 4, 0, 13, 18, 6, 0, 11, 14, 13, 17, 4, 18, 19, 14, 17, 0, 11, 4, 17, 21, 8, 17, 8, 11, 2, 0, 11, 4, 18, 3, 8, 13, 3, 4, 15, 4, 17, 8, 19, 15, 4, 18, 14, 18, 2, 0, 12, 15, 4, 12, 0, 13, 8, 0, 17, 0, 24, 4, 17, 7, 14, 18, 19, 14, 1, 0, 18, 4, 4, 18, 19, 14, 2, 10, 14, 20, 19, 17, 4, 19, 0, 18, 18, 0, 17, 14, 12, 0, 13, 14, 21, 0, 11, 4, 1, 17, 8, 3, 4, 5, 0, 11, 18, 4, 0, 21, 0, 8, 19, 0, 21, 14, 8, 17, 0, 21, 0, 8, 18, 0, 21, 14, 13, 18, 0, 24, 0, 13, 19, 0, 21, 8, 4, 25, 0, 8, 4, 13, 19, 0, 20, 17, 4, 25, 0, 24, 14, 13, 18, 4, 20, 18, 18, 4, 4, 20, 12, 4, 18, 4, 20, 19, 4, 18, 5, 0, 8, 17, 4, 4, 19, 0, 8, 19, 4, 19, 0, 13, 19, 18, 4, 17, 0, 8, 18, 4, 17, 4, 25, 4, 19, 8, 4, 25, 18, 4, 17, 0, 18, 18, 14, 24, 4, 25, 5, 20, 12, 4, 18, 5, 20, 18, 18, 4, 5, 20, 19, 4, 18, 5, 4, 17, 0, 8, 5, 0, 18, 18, 4, 5, 0, 8, 19, 4, 5, 4, 17, 0, 18, 5, 0, 8, 19, 18, 5, 4, 17, 4, 25, 5, 8, 12, 4, 18, 5, 8, 18, 18, 4, 5, 8, 19, 4, 18, 0, 8, 11, 11, 4, 0, 11, 11, 4, 4, 8, 17, 0, 8, 19, 0, 11, 11, 4, 18, 8, 17, 0, 8, 18, 8, 17, 14, 13, 18, 0, 11, 11, 0, 8, 8, 17, 14, 13, 19, 8, 17, 8, 4, 25, 0, 11, 11, 0, 19, 0, 11, 11, 0, 18, 3, 8, 19, 4, 18, 3, 8, 17, 0, 8, 3, 8, 17, 0, 18, 3, 8, 17, 4, 25, 3, 8, 18, 4, 18, 3, 8, 12, 4, 18, 2, 4, 19, 19, 4, 15, 20, 12, 4, 18, 15, 20, 18, 18, 4, 15, 20, 19, 4, 18, 21, 14, 20, 11, 20, 19, 14, 20, 19, 4, 18, 0, 21, 4, 25, 21, 14, 24, 4, 25, 21, 4, 17, 17, 0, 18, 0, 2, 7, 4, 21, 8, 12, 4, 18, 18, 20, 12, 4, 18, 18, 20, 18, 18, 4, 0, 11, 14, 17, 18, 0, 20, 18, 18, 8, 21, 8, 4, 13, 18, 2, 7, 14, 18, 4, 21, 4, 13, 8, 17, 21, 8, 4, 13, 19, 3, 4, 21, 4, 25, 21, 14, 19, 17, 4, 19, 4, 12, 15, 18, 21, 4, 13, 4, 25, 3, 4, 21, 17, 0, 3, 14, 8, 21, 4, 3, 20, 12, 4, 18, 3, 20, 18, 18, 4, 21, 4, 13, 20, 4, 21, 4, 13, 20, 18, 7, 14, 12, 12, 4, 15, 4, 19, 8, 19, 2, 17, 14, 8, 18, 15, 17, 4, 13, 3, 15, 0, 17, 11, 4, 5, 4, 12, 12, 4, 15, 17, 8, 18, 4, 13, 14, 19, 17, 4, 9, 14, 20, 17, 18, 1, 14, 13, 13, 4, 12, 14, 13, 3, 4, 15, 0, 18, 18, 4, 15, 0, 17, 11, 0, 15, 4, 13, 18, 4, 18, 20, 8, 21, 4, 0, 20, 19, 17, 4, 5, 0, 11, 11, 20, 2, 17, 14, 8, 19, 6, 17, 0, 13, 3, 15, 0, 18, 18, 0, 2, 17, 14, 8, 4, 2, 17, 20, 4, 18, 0, 8, 12, 4, 18, 0, 8, 12, 4, 17, 0, 8, 12, 4, 25, 7, 4, 20, 17, 4, 3, 14, 13, 13, 4, 5, 8, 11, 11, 4, 0, 8, 12, 4, 4, 18, 4, 20, 11, 4, 0, 8, 12, 0, 19, 0, 8, 12, 0, 8, 15, 4, 13, 18, 0, 4, 13, 19, 17, 4, 12, 14, 8, 13, 18, 12, 0, 8, 13, 18, 11, 4, 20, 17, 18, 3, 14, 13, 13, 0, 12, 4, 19, 19, 4, 21, 14, 8, 11, 0, 12, 8, 18, 4, 18, 12, 8, 4, 20, 23, 12, 8, 12, 4, 18, 19, 17, 14, 8, 18, 4, 11, 11, 4, 18, 18, 4, 20, 11, 18, 17, 4, 18, 19, 4, 2, 14, 12, 12, 4, 17, 4, 18, 19, 0, 1, 4, 11, 11, 4, 15, 14, 17, 19, 4, 2, 14, 13, 13, 20, 0, 12, 14, 20, 17, 18, 14, 17, 19, 8, 0, 18, 18, 4, 25, 15, 4, 17, 4, 18, 14, 4, 8, 11, 18, 15, 0, 17, 19, 4, 9, 20, 18, 19, 4, 2, 14, 20, 15, 18, 9, 4, 20, 13, 4, 15, 11, 0, 2, 4, 12, 4, 17, 4, 18, 19, 4, 19, 4, 18, 2, 14, 17, 15, 18, 19, 4, 13, 8, 17, 19, 4, 17, 17, 4, 19, 8, 4, 13, 19, 13, 20, 8, 19, 18, 1, 4, 0, 20, 23, 4, 13, 5, 8, 13, 19, 8, 4, 13, 18, 21, 17, 0, 8, 4, 3, 8, 4, 20, 23, 19, 4, 13, 4, 25, 12, 4, 20, 17, 19, 12, 0, 12, 0, 13, 18, 20, 17, 4, 18, 12, 4, 20, 17, 18, 0, 8, 13, 18, 8, 12, 4, 12, 4, 18, 12, 4, 20, 17, 4, 12, 0, 19, 8, 13, 15, 11, 0, 8, 19, 21, 17, 0, 8, 18, 0, 8, 3, 4, 17, 19, 4, 13, 20, 4, 15, 4, 17, 3, 20, 9, 14, 20, 4, 17, 19, 4, 13, 20, 18, 21, 8, 4, 20, 23, 2, 14, 4, 20, 17, 21, 8, 11, 11, 4, 18, 14, 8, 17, 18, 15, 4, 8, 13, 4, 14, 20, 0, 8, 18, 5, 8, 13, 8, 17, 2, 4, 11, 20, 8, 14, 20, 21, 17, 4, 19, 20, 4, 17, 0, 19, 20, 4, 13, 19, 19, 20, 0, 8, 19, 19, 20, 4, 4, 18, 19, 20, 14, 13, 18, 19, 20, 0, 8, 18, 19, 20, 8, 4, 25, 18, 20, 8, 19, 4, 17, 4, 13, 3, 18, 5, 8, 13, 8, 19, 17, 4, 13, 3, 20, 5, 17, 4, 17, 4, 19, 17, 0, 8, 13, 15, 8, 4, 3, 18, 19, 8, 17, 4, 17, 17, 4, 13, 3, 4, 21, 8, 21, 4, 25, 15, 4, 17, 3, 18, 21, 8, 21, 17, 0, 5, 0, 2, 14, 13, 21, 4, 2, 20, 4, 21, 4, 2, 20, 19, 21, 4, 2, 20, 18, 19, 14, 12, 1, 4, 2, 14, 19, 4, 18, 19, 0, 1, 11, 4, 0, 13, 13, 4, 4, 9, 14, 20, 4, 25, 4, 13, 21, 8, 4, 15, 4, 17, 3, 4, 0, 18, 18, 8, 18, 0, 8, 3, 4, 25, 9, 14, 20, 4, 4, 9, 14, 20, 0, 8, 9, 14, 20, 4, 18, 9, 14, 20, 0, 19, 4, 13, 19, 17, 0, 3, 14, 20, 19, 4, 19, 14, 12, 1, 0, 12, 0, 13, 6, 4, 15, 4, 20, 17, 18, 4, 2, 17, 8, 19, 8, 3, 4, 4, 18, 12, 4, 17, 2, 8, 12, 14, 13, 19, 4, 0, 8, 3, 4, 4, 17, 14, 20, 19, 4, 0, 8, 3, 4, 18, 0, 8, 3, 0, 8, 0, 8, 3, 0, 19, 19, 8, 17, 4, 25, 15, 11, 4, 8, 13, 2, 0, 20, 18, 4, 19, 8, 17, 4, 18, 19, 8, 17, 4, 4, 15, 14, 17, 19, 0, 13, 14, 8, 17, 4, 19, 8, 17, 0, 8, 19, 8, 17, 0, 19, 19, 8, 17, 0, 18, 18, 14, 17, 19, 4, 15, 0, 24, 4, 17, 15, 14, 18, 4, 17, 15, 11, 0, 8, 18, 0, 18, 18, 8, 19, 14, 17, 3, 17, 4, 11, 0, 1, 0, 18, 1, 11, 0, 13, 2, 6, 4, 13, 17, 4, 21, 14, 8, 2, 8, 11, 8, 21, 17, 4, 13, 14, 8, 17, 18, 21, 4, 17, 17, 4, 15, 8, 4, 2, 4, 3, 14, 17, 12, 8, 12, 14, 13, 19, 0, 0, 20, 2, 20, 13, 4, 2, 17, 8, 18, 11, 14, 13, 6, 18, 2, 7, 8, 4, 13, 4, 2, 14, 11, 4, 18, 0, 11, 20, 19, 15, 14, 18, 4, 4, 0, 15, 17, 4, 18, 3, 14, 17, 12, 4, 6, 0, 17, 3, 4, 15, 14, 18, 4, 25, 17, 14, 20, 6, 4, 15, 0, 17, 19, 18, 15, 0, 17, 20, 19, 1, 20, 21, 4, 25, 15, 14, 18, 4, 18, 18, 0, 11, 11, 4, 5, 14, 20, 19, 20, 15, 14, 18, 0, 8, 11, 4, 21, 4, 25, 11, 8, 18, 4, 25, 15, 14, 18, 0, 19, 11, 4, 21, 4, 4, 15, 14, 18, 0, 18, 1, 14, 8, 21, 4, 1, 14, 8, 17, 0, 9, 4, 19, 19, 4, 18, 14, 4, 20, 17, 11, 4, 21, 0, 8, 5, 14, 11, 11, 4, 1, 20, 12, 4, 18, 11, 4, 21, 4, 18, 1, 20, 18, 18, 4, 19, 17, 20, 2, 18, 19, 14, 20, 19, 18, 19, 24, 15, 4, 18, 11, 8, 17, 0, 8, 11, 8, 17, 0, 18, 6, 0, 17, 3, 0, 11, 8, 18, 4, 18, 11, 4, 21, 0, 19, 11, 8, 17, 4, 25, 11, 20, 12, 4, 18, 6, 0, 6, 13, 4, 4, 5, 5, 4, 19, 15, 0, 24, 4, 25, 5, 14, 20, 19, 4, 15, 0, 24, 4, 4, 15, 0, 24, 4, 18, 15, 0, 17, 20, 4, 15, 0, 17, 20, 18, 15, 0, 24, 0, 8, 15, 0, 24, 0, 19, 1, 14, 20, 19, 18, 9, 4, 19, 4, 4, 19, 14, 20, 17, 18, 9, 4, 19, 4, 25, 12, 4, 17, 3, 4, 11, 8, 1, 17, 4, 9, 4, 19, 4, 18, 9, 4, 19, 0, 8, 11, 8, 4, 20, 23, 15, 17, 4, 19, 4, 9, 4, 19, 0, 19, 9, 4, 19, 0, 18, 15, 17, 4, 19, 18, 7, 14, 19, 4, 11, 6, 4, 18, 19, 4, 18, 0, 13, 6, 18, 0, 17, 12, 4, 18, 5, 0, 20, 19, 4, 14, 12, 1, 17, 4, 17, 8, 0, 8, 19, 5, 4, 17, 12, 4, 14, 13, 2, 11, 4, 9, 14, 11, 8, 4, 3, 4, 1, 20, 19, 5, 14, 17, 12, 4, 6, 0, 6, 13, 0, 15, 0, 17, 12, 8, 5, 17, 14, 8, 3, 15, 7, 14, 19, 14, 17, 8, 4, 13, 19, 17, 8, 0, 8, 18, 15, 17, 8, 4, 17, 3, 17, 14, 11, 4, 17, 8, 14, 13, 18, 17, 8, 17, 0, 8, 3, 14, 8, 6, 19, 17, 8, 17, 0, 18, 17, 8, 17, 4, 25, 17, 8, 12, 4, 18, 17, 8, 8, 4, 25, 5, 4, 17, 12, 0, 2, 7, 4, 5, 18, 2, 11, 0, 8, 17, 14, 3, 4, 20, 17, 2, 14, 20, 17, 19, 2, 8, 4, 11, 18, 11, 8, 4, 20, 18, 6, 17, 0, 21, 4, 2, 0, 2, 7, 4, 8, 12, 0, 6, 4, 17, 4, 2, 20, 19, 2, 14, 20, 17, 20, 2, 14, 20, 17, 18, 2, 17, 8, 4, 17, 9, 0, 12, 1, 4, 18, 8, 6, 13, 4, 18, 0, 20, 21, 4, 17, 4, 2, 20, 18, 15, 17, 8, 4, 25, 17, 4, 2, 20, 4, 1, 0, 19, 19, 20, 11, 8, 6, 13, 4, 15, 17, 8, 4, 18, 21, 14, 11, 4, 17, 15, 17, 8, 0, 8, 15, 17, 8, 4, 4, 15, 17, 8, 0, 19, 0, 6, 8, 17, 0, 21, 0, 11, 20, 19, 21, 0, 11, 4, 25, 18, 2, 4, 13, 4, 18, 20, 5, 5, 8, 2, 0, 17, 19, 4, 21, 0, 11, 20, 4, 2, 14, 20, 17, 4, 5, 8, 11, 12, 18, 17, 4, 12, 8, 18, 0, 17, 1, 17, 4, 5, 0, 2, 4, 18, 2, 7, 4, 17, 4, 12, 0, 17, 8, 18, 4, 19, 0, 19, 18, 1, 14, 20, 6, 4, 17, 4, 21, 4, 18, 12, 8, 11, 11, 4, 2, 0, 2, 7, 0, 1, 14, 8, 19, 4, 5, 17, 14, 13, 19, 7, 0, 20, 19, 4, 18, 4, 11, 14, 13, 2, 7, 4, 17, 18, 17, 4, 12, 8, 19, 0, 3, 14, 17, 4, 19, 0, 13, 19, 4, 17, 4, 12, 4, 19, 3, 4, 13, 19, 18, 7, 14, 13, 19, 4, 2, 0, 5, 4, 18, 21, 8, 13, 6, 19, 2, 17, 8, 4, 25, 9, 14, 11, 8, 18, 2, 17, 8, 4, 18, 2, 17, 8, 0, 8, 0, 21, 8, 14, 13, 19, 0, 8, 17, 4, 0, 12, 4, 13, 4, 2, 17, 8, 0, 19, 2, 17, 8, 4, 4, 3, 17, 14, 8, 19, 1, 0, 18, 18, 4, 5, 11, 8, 2, 18, 1, 11, 4, 20, 4, 2, 14, 20, 15, 4, 21, 4, 13, 3, 20, 3, 20, 17, 4, 18, 18, 0, 20, 21, 0, 1, 14, 17, 3, 18, 5, 14, 17, 19, 4, 21, 14, 11, 4, 4, 1, 0, 11, 11, 4, 2, 14, 8, 13, 18, 19, 4, 11, 11, 4, 21, 14, 11, 4, 18, 15, 14, 2, 7, 4, 18, 14, 20, 17, 8, 3, 0, 12, 4, 18, 5, 11, 4, 20, 17, 12, 0, 17, 8, 4, 21, 14, 11, 4, 25, 2, 7, 14, 8, 23, 21, 14, 11, 0, 8, 21, 4, 13, 3, 18, 21, 14, 11, 0, 19, 0, 12, 20, 18, 4, 1, 11, 4, 20, 18, 18, 20, 15, 4, 17, 15, 11, 20, 8, 4, 2, 4, 18, 18, 4, 15, 14, 18, 19, 4, 21, 4, 13, 19, 18, 2, 14, 20, 15, 0, 2, 0, 18, 18, 4, 17, 4, 21, 20, 4, 0, 15, 15, 4, 11, 12, 0, 17, 8, 0, 17, 4, 21, 20, 18, 18, 0, 11, 4, 18, 21, 4, 13, 3, 4, 17, 4, 21, 4, 17, 7, 0, 20, 19, 18, 19, 0, 8, 18, 4, 19, 0, 8, 17, 0, 18, 0, 20, 19, 4, 19, 20, 12, 4, 18, 12, 4, 13, 19, 8, 2, 7, 0, 20, 3, 15, 4, 0, 20, 23, 6, 11, 0, 2, 4, 5, 4, 19, 4, 18, 18, 4, 17, 17, 4, 3, 4, 18, 8, 17, 4, 19, 17, 4, 18, 0, 12, 4, 13, 0, 12, 4, 13, 4, 17, 11, 0, 2, 7, 4, 11, 4, 21, 17, 4, 18, 0, 13, 19, 4, 11, 0, 13, 2, 4, 11, 4, 6, 4, 17, 17, 14, 1, 4, 18, 11, 0, 13, 2, 0, 2, 7, 0, 19, 18, 19, 4, 13, 3, 20, 14, 18, 0, 8, 19, 18, 0, 20, 19, 0, 11, 0, 2, 7, 0, 7, 8, 21, 4, 17, 0, 6, 4, 13, 19, 1, 0, 13, 3, 4, 5, 14, 17, 19, 18, 5, 14, 17, 4, 19, 15, 8, 19, 8, 4, 6, 14, 18, 18, 4, 5, 14, 20, 11, 4, 7, 4, 17, 1, 4, 0, 12, 20, 18, 0, 1, 17, 20, 11, 4, 2, 0, 11, 12, 4, 21, 8, 3, 4, 18, 14, 1, 9, 4, 19, 1, 4, 1, 4, 18, 2, 4, 18, 18, 0, 18, 0, 11, 14, 13, 14, 18, 0, 8, 18, 2, 17, 8, 12, 4, 2, 0, 18, 18, 0, 17, 4, 21, 4, 25, 6, 20, 4, 17, 4, 17, 0, 3, 8, 14, 4, 13, 5, 4, 17, 19, 4, 13, 3, 18, 19, 4, 13, 19, 4, 2, 7, 0, 12, 15, 17, 8, 17, 4, 18, 17, 4, 21, 4, 4, 14, 18, 4, 13, 19, 15, 11, 0, 6, 4, 17, 4, 21, 0, 8, 4, 19, 0, 6, 4, 14, 18, 0, 13, 19, 17, 4, 21, 0, 19, 21, 4, 17, 19, 4, 17, 4, 15, 0, 18, 12, 4, 13, 4, 4, 14, 18, 4, 17, 0, 17, 14, 20, 11, 4, 15, 14, 8, 3, 18, 19, 17, 14, 20, 18, 14, 18, 14, 13, 18, 12, 14, 17, 19, 4, 14, 18, 8, 4, 25, 19, 4, 13, 3, 4, 14, 18, 4, 4, 18, 9, 14, 8, 4, 18, 9, 20, 17, 4, 17, 15, 17, 4, 21, 20, 12, 4, 13, 4, 18, 2, 0, 12, 15, 18, 5, 17, 0, 8, 18, 12, 4, 13, 4, 25, 3, 0, 13, 18, 4, 5, 20, 12, 4, 17, 12, 4, 13, 19, 4, 7, 4, 17, 14, 18, 0, 3, 14, 17, 0, 17, 14, 20, 11, 0, 12, 4, 13, 0, 8, 12, 4, 13, 0, 19, 9, 20, 17, 4, 25, 5, 8, 11, 4, 17, 12, 14, 17, 19, 18, 17, 8, 2, 7, 4, 9, 20, 17, 4, 18, 13, 4, 8, 6, 4, 3, 0, 13, 18, 0, 6, 17, 8, 18, 4, 21, 4, 17, 19, 18, 9, 20, 17, 4, 4, 9, 20, 17, 0, 8, 6, 14, 17, 6, 4, 18, 4, 2, 7, 4, 15, 0, 6, 4, 18, 11, 14, 20, 17, 3, 6, 14, 20, 19, 18, 1, 8, 4, 17, 4, 9, 0, 20, 13, 4, 19, 4, 13, 19, 0, 4, 23, 0, 2, 19, 1, 0, 8, 13, 18, 3, 20, 17, 4, 17, 1, 17, 20, 11, 0, 19, 14, 8, 11, 4, 6, 4, 13, 14, 20, 2, 0, 11, 12, 0, 2, 4, 13, 19, 18, 18, 14, 12, 12, 4, 4, 21, 8, 19, 4, 18, 14, 13, 13, 4, 5, 14, 11, 8, 4, 11, 0, 12, 15, 4, 11, 0, 17, 6, 4, 19, 17, 0, 2, 4, 18, 4, 8, 13, 18, 11, 0, 21, 4, 17, 13, 14, 19, 4, 18, 0, 21, 14, 20, 4, 1, 8, 4, 13, 18, 5, 0, 8, 12, 18, 5, 8, 23, 4, 17, 13, 4, 20, 21, 4, 4, 21, 8, 19, 0, 2, 17, 14, 8, 23, 12, 4, 19, 17, 4, 9, 20, 6, 4, 17, 5, 8, 11, 4, 25, 0, 17, 17, 4, 19, 19, 8, 19, 17, 4, 11, 0, 17, 12, 4, 12, 4, 11, 4, 17, 21, 4, 18, 19, 4, 15, 14, 12, 12, 4, 17, 4, 6, 11, 4, 2, 14, 20, 19, 4, 5, 8, 11, 4, 18, 5, 8, 11, 4, 4, 5, 8, 11, 0, 8, 15, 8, 17, 4, 18, 5, 20, 12, 4, 25, 16, 20, 4, 20, 4, 5, 8, 23, 4, 18, 5, 8, 11, 0, 19, 13, 4, 20, 5, 18, 16, 20, 4, 11, 18, 4, 13, 13, 20, 8, 2, 14, 11, 11, 4, 2, 17, 4, 4, 17, 19, 14, 8, 19, 18, 5, 20, 12, 4, 4, 11, 8, 18, 19, 4, 5, 8, 23, 4, 4, 15, 0, 8, 13, 18, 2, 14, 20, 11, 4, 5, 20, 12, 0, 8, 17, 14, 11, 4, 18, 5, 20, 12, 0, 19, 2, 17, 8, 18, 4, 12, 4, 11, 4, 4, 17, 0, 17, 4, 18, 4, 11, 4, 21, 4, 18, 14, 8, 13, 18, 5, 20, 18, 8, 11, 18, 14, 13, 13, 0, 17, 4, 8, 13, 4, 8, 3, 8, 14, 19, 1, 0, 8, 18, 4, 16, 20, 0, 17, 19, 3, 20, 17, 4, 4, 18, 14, 20, 2, 8, 3, 20, 17, 0, 19, 12, 4, 11, 4, 18, 5, 8, 23, 4, 25, 18, 24, 12, 15, 0, 5, 8, 23, 0, 8, 0, 12, 0, 13, 19, 2, 14, 20, 11, 0, 6, 17, 0, 2, 4, 5, 8, 23, 0, 19, 5, 8, 4, 17, 4, 5, 14, 17, 2, 4, 21, 8, 4, 8, 11, 17, 4, 15, 14, 18, 6, 4, 13, 8, 4, 12, 4, 11, 4, 25, 15, 8, 18, 19, 4, 2, 17, 4, 21, 4, 15, 14, 13, 19, 18, 12, 8, 13, 2, 4, 4, 11, 4, 21, 0, 12, 0, 18, 18, 4, 19, 0, 15, 4, 17, 3, 14, 20, 19, 0, 12, 4, 11, 0, 8, 12, 4, 11, 0, 19, 7, 0, 8, 13, 4, 20, 18, 8, 13, 4, 0, 21, 14, 20, 0, 2, 14, 11, 11, 0, 12, 14, 24, 4, 13, 15, 11, 0, 2, 0, 2, 7, 8, 4, 17, 15, 14, 8, 11, 18, 1, 0, 8, 18, 0, 11, 24, 2, 4, 4, 2, 14, 12, 19, 4, 9, 20, 6, 4, 25, 1, 14, 12, 1, 4, 9, 20, 6, 4, 0, 15, 0, 17, 8, 4, 5, 20, 24, 4, 25, 5, 8, 4, 17, 18, 19, 4, 17, 12, 4, 9, 20, 6, 4, 4, 4, 2, 11, 0, 19, 18, 8, 6, 13, 0, 18, 8, 4, 6, 4, 9, 20, 6, 4, 18, 21, 8, 17, 4, 17, 12, 0, 17, 17, 4, 18, 19, 24, 11, 4, 15, 14, 8, 13, 6, 15, 20, 17, 4, 18, 15, 14, 19, 4, 18, 17, 14, 18, 4, 18, 0, 13, 6, 4, 18, 15, 17, 4, 19, 0, 21, 14, 8, 4, 18, 5, 20, 8, 4, 18, 5, 20, 8, 17, 0, 0, 2, 19, 4, 18, 0, 8, 11, 4, 18, 5, 14, 17, 12, 0, 4, 19, 4, 13, 3, 3, 17, 0, 15, 18, 1, 14, 20, 11, 4, 11, 0, 21, 4, 4, 7, 20, 17, 11, 4, 2, 17, 4, 4, 4, 4, 15, 14, 20, 23, 2, 17, 4, 21, 0, 4, 15, 0, 8, 18, 2, 14, 17, 3, 4, 15, 0, 19, 19, 4, 11, 0, 21, 4, 25, 0, 3, 8, 4, 20, 13, 14, 12, 12, 4, 5, 8, 13, 4, 18, 21, 0, 18, 19, 4, 15, 4, 8, 13, 19, 1, 0, 17, 1, 4, 11, 0, 21, 4, 18, 13, 20, 0, 6, 4, 14, 4, 20, 5, 18, 15, 11, 4, 20, 19, 2, 17, 4, 4, 18, 18, 14, 13, 6, 4, 18, 4, 17, 8, 4, 11, 0, 21, 0, 8, 11, 8, 21, 17, 0, 21, 8, 19, 17, 4, 6, 4, 13, 4, 17, 5, 14, 17, 2, 0, 12, 8, 13, 4, 18, 11, 4, 2, 14, 13, 1, 17, 8, 18, 4, 17, 4, 6, 11, 0, 15, 8, 16, 20, 4, 5, 17, 20, 8, 19, 3, 8, 13, 4, 25, 18, 0, 11, 20, 4, 12, 0, 19, 2, 7, 17, 20, 18, 18, 4, 2, 17, 4, 4, 25, 17, 0, 13, 6, 4, 3, 8, 13, 4, 18, 2, 17, 4, 0, 8, 2, 17, 4, 0, 19, 3, 14, 20, 25, 4, 4, 6, 0, 17, 3, 3, 8, 13, 0, 8, 18, 20, 4, 20, 17, 3, 8, 13, 0, 19, 19, 0, 2, 7, 4, 4, 19, 20, 3, 4, 20, 13, 8, 19, 4, 20, 19, 8, 11, 4, 18, 14, 20, 15, 4, 19, 20, 4, 20, 17, 6, 4, 13, 4, 4, 7, 20, 17, 11, 0, 5, 17, 8, 2, 18, 19, 4, 11, 4, 18, 3, 4, 12, 14, 13, 6, 0, 17, 4, 18, 17, 0, 19, 4, 17, 11, 20, 13, 4, 18, 6, 4, 13, 4, 25, 6, 4, 13, 4, 18, 2, 14, 20, 19, 0, 21, 8, 21, 4, 18, 19, 0, 15, 4, 25, 5, 8, 2, 7, 4, 21, 8, 17, 4, 4, 15, 4, 17, 19, 4, 19, 0, 15, 4, 4, 21, 8, 17, 4, 25, 2, 7, 4, 17, 8, 19, 14, 17, 19, 18, 19, 0, 15, 4, 18, 0, 13, 6, 11, 4, 19, 0, 15, 0, 8, 17, 0, 24, 14, 13, 6, 4, 13, 0, 19, 4, 23, 8, 6, 4, 1, 11, 14, 13, 3, 21, 8, 17, 4, 18, 5, 8, 2, 7, 0, 0, 3, 12, 8, 18, 12, 14, 16, 20, 4, 21, 8, 3, 4, 17, 18, 20, 2, 17, 4, 11, 8, 13, 6, 4, 11, 20, 4, 20, 17, 11, 20, 19, 19, 4, 21, 8, 17, 0, 19, 21, 8, 17, 0, 8, 1, 0, 18, 4, 18, 18, 0, 11, 20, 0, 11, 0, 8, 19, 18, 21, 0, 6, 20, 4, 15, 4, 8, 13, 18, 2, 7, 20, 19, 4, 12, 14, 12, 4, 18, 12, 14, 16, 20, 0, 15, 14, 17, 19, 18, 4, 13, 5, 20, 8, 5, 20, 8, 19, 4, 1, 17, 8, 18, 0, 11, 20, 13, 3, 8, 19, 0, 23, 8, 18, 17, 14, 12, 15, 20, 0, 6, 8, 19, 4, 14, 1, 4, 8, 17, 3, 4, 12, 8, 4, 15, 8, 16, 20, 0, 0, 21, 0, 11, 4, 15, 0, 11, 4, 18, 20, 18, 0, 6, 4, 7, 4, 11, 0, 18, 15, 4, 13, 3, 20, 17, 14, 13, 3, 4, 7, 20, 8, 11, 4, 12, 4, 19, 17, 14, 17, 0, 13, 6, 18, 0, 3, 12, 4, 19, 18, 20, 1, 8, 17, 15, 11, 20, 12, 4, 11, 0, 15, 8, 13, 19, 0, 1, 0, 2, 13, 20, 16, 20, 4, 1, 17, 4, 21, 4, 21, 14, 8, 11, 4, 2, 7, 0, 13, 19, 1, 17, 0, 21, 4, 2, 4, 13, 18, 4, 2, 4, 3, 4, 17, 1, 17, 20, 13, 4, 12, 4, 19, 0, 11, 18, 14, 20, 17, 3, 18, 4, 23, 4, 18, 0, 3, 12, 8, 19, 1, 4, 19, 4, 18, 15, 4, 18, 4, 17, 25, 14, 13, 4, 18, 19, 4, 23, 19, 4, 17, 4, 2, 8, 19, 15, 8, 4, 6, 4, 0, 6, 8, 19, 0, 16, 20, 0, 8, 18, 13, 14, 12, 12, 0, 3, 8, 6, 13, 4, 12, 14, 17, 3, 20, 18, 4, 20, 8, 11, 0, 21, 0, 11, 0, 13, 4, 17, 5, 18, 15, 14, 20, 11, 4, 12, 0, 11, 8, 13, 18, 14, 17, 19, 18, 11, 8, 4, 13, 18, 17, 4, 20, 13, 8, 11, 4, 13, 19, 4, 6, 0, 5, 5, 4, 0, 2, 2, 4, 18, 21, 8, 3, 4, 4, 17, 14, 13, 3, 18, 17, 0, 21, 8, 17, 17, 0, 19, 4, 4, 17, 0, 19, 4, 25, 14, 1, 4, 8, 18, 21, 8, 3, 4, 25, 6, 0, 13, 19, 18, 14, 1, 4, 8, 19, 17, 0, 19, 4, 18, 13, 14, 1, 11, 4, 12, 8, 3, 8, 18, 17, 0, 19, 0, 8, 2, 14, 20, 3, 4, 12, 4, 18, 18, 4, 17, 0, 21, 8, 19, 21, 8, 3, 0, 8, 15, 4, 13, 3, 4, 15, 4, 13, 3, 18, 12, 14, 17, 3, 18, 17, 4, 5, 8, 19, 21, 8, 3, 0, 18, 1, 17, 4, 5, 18, 14, 2, 4, 0, 13, 11, 14, 20, 15, 18, 3, 17, 0, 12, 4, 5, 14, 13, 2, 4, 21, 4, 17, 18, 4, 11, 14, 20, 4, 17, 3, 4, 15, 8, 19, 0, 12, 8, 4, 18, 19, 0, 18, 18, 4, 17, 4, 5, 8, 18, 15, 14, 4, 19, 4, 3, 4, 2, 14, 17, 17, 14, 12, 15, 19, 15, 4, 13, 19, 4, 21, 4, 17, 18, 0, 14, 17, 0, 6, 4, 17, 14, 20, 4, 18, 2, 11, 20, 1, 18, 2, 0, 3, 17, 4, 1, 0, 13, 2, 18, 15, 11, 0, 19, 4, 2, 20, 8, 17, 18, 0, 21, 0, 13, 19, 20, 13, 8, 14, 13, 17, 14, 12, 15, 18, 6, 14, 20, 19, 4, 2, 14, 13, 13, 4, 4, 2, 0, 17, 19, 1, 14, 18, 18, 4, 0, 2, 8, 4, 17, 17, 14, 12, 15, 4, 15, 4, 18, 4, 25, 4, 2, 7, 4, 2, 9, 4, 20, 3, 8, 2, 17, 20, 4, 11, 15, 4, 18, 4, 18, 1, 17, 20, 13, 18, 1, 0, 6, 20, 4, 4, 6, 0, 11, 4, 15, 4, 18, 4, 4, 13, 20, 11, 11, 4, 18, 8, 13, 6, 4, 18, 20, 17, 6, 8, 17, 4, 12, 20, 4, 15, 4, 18, 0, 19, 15, 4, 18, 0, 8, 5, 8, 11, 4, 19, 11, 4, 13, 19, 18, 12, 14, 17, 3, 4, 21, 4, 17, 19, 20, 18, 0, 8, 13, 19, 15, 14, 20, 2, 4, 7, 8, 15, 15, 14, 1, 14, 19, 19, 4, 19, 14, 19, 0, 11, 7, 0, 8, 17, 0, 0, 1, 17, 8, 18, 2, 7, 8, 4, 18, 7, 0, 8, 4, 18, 14, 1, 4, 8, 4, 17, 4, 12, 20, 0, 18, 15, 14, 17, 19, 3, 0, 19, 4, 18, 2, 7, 8, 4, 25, 21, 8, 11, 11, 0, 2, 7, 8, 4, 4, 0, 20, 1, 4, 18, 15, 14, 4, 12, 4, 17, 0, 18, 4, 17, 13, 14, 19, 4, 17, 3, 8, 17, 4, 18, 17, 4, 8, 13, 18, 5, 4, 18, 18, 4, 18, 20, 1, 8, 19, 12, 14, 3, 4, 18, 11, 8, 4, 4, 18, 19, 8, 4, 3, 4, 2, 11, 4, 5, 18, 1, 14, 18, 18, 0, 21, 4, 19, 20, 4, 4, 2, 17, 0, 13, 1, 17, 20, 12, 4, 11, 8, 0, 8, 19, 18, 20, 1, 8, 18, 9, 14, 20, 8, 17, 17, 4, 4, 11, 18, 15, 11, 0, 19, 18, 15, 14, 12, 15, 4, 1, 0, 17, 17, 4, 2, 4, 3, 4, 25, 13, 14, 19, 4, 25, 0, 21, 17, 8, 11, 12, 14, 2, 7, 4, 9, 14, 8, 13, 19, 6, 0, 2, 7, 4, 2, 4, 3, 0, 8, 5, 0, 2, 7, 4, 21, 0, 8, 13, 4, 5, 11, 0, 13, 2, 2, 4, 3, 4, 18, 2, 4, 3, 4, 4, 2, 4, 3, 0, 19, 6, 17, 0, 8, 13, 18, 20, 1, 8, 4, 18, 0, 6, 4, 18, 14, 5, 5, 17, 4, 15, 17, 8, 21, 4, 9, 20, 8, 21, 4, 11, 0, 8, 13, 4, 19, 4, 18, 19, 18, 11, 8, 4, 13, 19, 15, 20, 13, 8, 17, 13, 0, 6, 4, 17, 6, 14, 20, 19, 0, 15, 0, 17, 2, 18, 11, 8, 0, 8, 18, 21, 4, 19, 20, 18, 4, 6, 0, 20, 23, 11, 8, 4, 17, 0, 11, 8, 14, 13, 18, 12, 0, 8, 17, 4, 10, 8, 11, 14, 18, 1, 0, 19, 14, 13, 5, 20, 19, 20, 17, 1, 0, 17, 14, 13, 19, 0, 20, 11, 4, 15, 20, 8, 19, 18, 9, 14, 8, 13, 18, 3, 4, 12, 8, 18, 2, 0, 13, 13, 4, 17, 20, 8, 13, 4, 15, 17, 14, 8, 4, 12, 4, 5, 8, 4, 21, 0, 8, 13, 18, 2, 8, 1, 11, 4, 12, 0, 6, 8, 4, 11, 14, 20, 4, 4, 21, 4, 8, 13, 4, 5, 4, 19, 4, 17, 9, 20, 15, 4, 18, 16, 20, 0, 13, 19, 21, 4, 13, 19, 4, 15, 11, 8, 4, 17, 11, 14, 20, 4, 25, 2, 0, 13, 0, 11, 11, 14, 20, 21, 4, 13, 4, 19, 19, 4, 17, 14, 24, 0, 11, 21, 14, 4, 20, 23, 9, 20, 8, 5, 18, 14, 13, 6, 11, 4, 17, 0, 8, 3, 4, 18, 4, 8, 25, 4, 11, 14, 20, 4, 18, 5, 11, 14, 19, 18, 2, 14, 13, 6, 4, 11, 14, 20, 0, 8, 12, 0, 17, 3, 8, 17, 0, 18, 4, 4, 14, 15, 4, 17, 0, 15, 0, 20, 18, 4, 13, 14, 19, 0, 8, 19, 0, 11, 14, 13, 0, 18, 8, 11, 4, 1, 4, 13, 8, 18, 4, 19, 0, 11, 4, 19, 20, 24, 0, 20, 13, 14, 19, 4, 4, 21, 4, 19, 8, 17, 0, 15, 15, 20, 8, 17, 0, 18, 4, 18, 11, 20, 19, 19, 0, 12, 14, 19, 8, 5, 21, 8, 18, 4, 17, 0, 20, 19, 14, 18, 5, 14, 13, 2, 0, 1, 4, 13, 8, 4, 4, 2, 17, 8, 0, 17, 0, 2, 4, 18, 2, 14, 3, 4, 18, 21, 14, 12, 8, 17, 7, 0, 1, 8, 19, 3, 4, 20, 8, 11, 4, 18, 18, 0, 8, 15, 11, 14, 12, 1, 3, 4, 6, 17, 4, 13, 4, 21, 4, 20, 1, 14, 13, 19, 4, 14, 20, 1, 11, 8, 4, 19, 0, 11, 0, 1, 4, 13, 8, 17, 17, 0, 18, 4, 25, 15, 8, 18, 18, 4, 12, 14, 8, 13, 4, 21, 14, 24, 14, 20, 21, 8, 18, 4, 25, 17, 0, 18, 0, 8, 1, 20, 19, 4, 17, 13, 14, 24, 4, 4, 13, 0, 13, 0, 18, 17, 4, 5, 20, 18, 21, 4, 19, 4, 25, 17, 4, 6, 13, 4, 6, 20, 8, 3, 4, 21, 4, 19, 8, 19, 3, 8, 21, 8, 13, 21, 4, 19, 8, 18, 4, 13, 2, 17, 4, 19, 0, 17, 3, 4, 2, 14, 6, 13, 4, 2, 14, 19, 14, 13, 17, 4, 6, 13, 0, 21, 8, 14, 11, 4, 15, 0, 13, 13, 4, 21, 4, 11, 14, 18, 15, 17, 14, 5, 18, 15, 11, 8, 4, 4, 1, 4, 13, 8, 19, 13, 14, 24, 4, 18, 5, 0, 2, 7, 0, 11, 0, 18, 18, 4, 1, 8, 1, 11, 4, 15, 14, 17, 2, 18, 15, 8, 11, 4, 18, 1, 11, 14, 2, 18, 12, 14, 17, 0, 11, 1, 14, 20, 4, 18, 8, 13, 3, 4, 23, 15, 4, 17, 2, 4, 5, 17, 0, 13, 2, 15, 11, 8, 4, 18, 21, 4, 13, 6, 4, 2, 0, 6, 4, 18, 12, 20, 4, 19, 18, 6, 0, 2, 7, 0, 12, 4, 2, 7, 4, 18, 14, 8, 5, 18, 19, 17, 14, 13, 2, 3, 0, 11, 11, 4, 15, 17, 8, 21, 0, 22, 0, 6, 14, 13, 4, 15, 4, 4, 18, 9, 14, 20, 8, 19, 18, 0, 2, 17, 4, 21, 8, 18, 4, 18, 17, 8, 21, 4, 18, 18, 0, 21, 14, 13, 4, 2, 7, 14, 18, 13, 14, 8, 4, 18, 12, 14, 11, 11, 4, 19, 0, 17, 3, 0, 17, 4, 0, 6, 8, 13, 14, 24, 4, 25, 4, 19, 0, 15, 4, 21, 8, 18, 4, 4, 15, 8, 18, 18, 0, 15, 11, 8, 4, 25, 21, 8, 18, 0, 8, 11, 0, 12, 4, 18, 9, 14, 20, 8, 18, 15, 20, 13, 8, 19, 9, 14, 20, 4, 19, 2, 14, 15, 8, 4, 13, 14, 2, 4, 18, 6, 0, 8, 4, 18, 0, 17, 12, 4, 4, 5, 14, 13, 3, 20, 15, 11, 8, 0, 8, 2, 11, 14, 20, 18, 15, 11, 8, 0, 19, 5, 8, 2, 7, 20, 7, 0, 19, 4, 18, 15, 4, 19, 4, 17, 2, 8, 21, 8, 11, 18, 14, 8, 4, 18, 11, 8, 18, 18, 4, 15, 11, 0, 8, 4, 8, 12, 8, 19, 4, 2, 7, 14, 20, 23, 14, 19, 0, 8, 19, 2, 14, 6, 13, 0, 15, 0, 20, 12, 4, 18, 19, 0, 17, 18, 18, 0, 20, 2, 4, 17, 0, 6, 4, 18, 20, 18, 0, 8, 19, 3, 4, 2, 20, 4, 2, 7, 0, 17, 18, 6, 4, 12, 8, 19, 0, 17, 12, 4, 17, 8, 3, 4, 0, 11, 14, 15, 4, 17, 4, 14, 19, 0, 13, 19, 2, 14, 13, 2, 20, 11, 0, 8, 3, 4, 15, 7, 0, 17, 4, 13, 4, 0, 13, 19, 20, 18, 4, 13, 19, 0, 17, 12, 4, 25, 20, 18, 4, 4, 18, 21, 8, 17, 20, 18, 21, 8, 14, 11, 0, 18, 4, 2, 7, 0, 1, 0, 17, 17, 0, 2, 20, 8, 17, 4, 15, 8, 15, 4, 18, 15, 0, 17, 8, 18, 4, 23, 2, 4, 18, 12, 0, 17, 4, 4, 15, 20, 0, 8, 19, 8, 12, 8, 19, 0, 14, 19, 0, 8, 18, 11, 8, 17, 4, 18, 14, 19, 4, 13, 19, 5, 14, 13, 3, 4, 14, 19, 4, 17, 0, 20, 18, 0, 8, 18, 15, 20, 4, 13, 19, 14, 19, 4, 4, 18, 14, 19, 8, 4, 25, 20, 18, 14, 13, 18, 15, 4, 17, 2, 0, 14, 19, 14, 13, 18, 20, 18, 4, 17, 0, 5, 8, 13, 0, 11, 14, 20, 19, 8, 11, 18, 8, 19, 20, 4, 4, 11, 0, 13, 18, 18, 0, 8, 13, 4, 0, 17, 12, 0, 8, 0, 17, 12, 0, 19, 3, 4, 2, 20, 18, 11, 20, 8, 17, 4, 6, 0, 17, 2, 4, 5, 14, 13, 3, 18, 20, 13, 8, 17, 0, 4, 2, 17, 8, 4, 18, 8, 4, 20, 17, 11, 14, 6, 4, 17, 0, 12, 4, 17, 4, 19, 14, 17, 3, 20, 19, 7, 4, 12, 4, 13, 14, 4, 20, 3, 15, 8, 6, 4, 17, 18, 19, 0, 3, 4, 7, 14, 2, 7, 0, 13, 0, 6, 4, 0, 1, 0, 19, 8, 17, 13, 0, 6, 4, 25, 15, 0, 19, 4, 18, 6, 4, 12, 8, 17, 21, 14, 11, 4, 19, 18, 20, 2, 4, 17, 18, 19, 24, 11, 14, 18, 4, 12, 4, 17, 15, 8, 6, 4, 25, 3, 4, 19, 19, 4, 2, 8, 19, 4, 17, 12, 0, 17, 6, 4, 17, 14, 20, 6, 8, 15, 0, 17, 4, 17, 3, 8, 21, 0, 13, 3, 4, 2, 20, 19, 2, 17, 4, 19, 4, 15, 20, 0, 8, 18, 0, 17, 0, 1, 4, 5, 14, 18, 18, 4, 25, 4, 17, 14, 18, 19, 17, 0, 2, 0, 6, 0, 17, 4, 17, 7, 14, 19, 4, 18, 15, 20, 4, 17, 0, 11, 20, 23, 4, 18, 21, 14, 12, 8, 19, 15, 20, 2, 4, 18, 15, 4, 17, 2, 20, 1, 20, 19, 4, 4, 18, 4, 11, 11, 4, 1, 20, 19, 4, 25, 1, 20, 19, 4, 18, 0, 6, 4, 4, 18, 5, 4, 19, 4, 25, 15, 0, 17, 4, 18, 21, 0, 11, 4, 19, 21, 0, 8, 13, 2, 15, 0, 17, 14, 8, 5, 17, 8, 6, 14, 15, 0, 17, 4, 4, 11, 14, 2, 0, 11, 1, 20, 19, 0, 8, 5, 8, 13, 8, 4, 6, 20, 8, 18, 4, 2, 0, 13, 4, 18, 8, 21, 17, 4, 18, 5, 4, 19, 4, 4, 17, 20, 1, 0, 13, 3, 4, 11, 0, 8, 6, 20, 8, 3, 0, 11, 20, 8, 18, 4, 11, 20, 8, 17, 0, 6, 0, 17, 4, 4, 6, 4, 0, 13, 19, 4, 12, 4, 20, 19, 5, 0, 19, 0, 11, 5, 14, 8, 17, 4, 4, 19, 8, 17, 4, 19, 14, 17, 3, 18, 0, 11, 1, 20, 12, 19, 20, 1, 4, 18, 17, 8, 3, 4, 18, 5, 8, 11, 12, 4, 15, 4, 3, 4, 18, 5, 14, 13, 3, 0, 19, 17, 14, 13, 4, 0, 11, 11, 4, 17, 15, 0, 17, 4, 25, 18, 19, 14, 15, 18, 18, 0, 8, 13, 18, 5, 14, 20, 4, 19, 0, 8, 6, 20, 4, 19, 17, 8, 1, 20, 13, 0, 15, 15, 4, 12, 14, 19, 14, 18, 1, 0, 13, 0, 11, 19, 14, 17, 3, 4, 5, 8, 13, 8, 18, 13, 8, 0, 8, 19, 21, 0, 18, 4, 18, 4, 19, 8, 17, 0, 21, 14, 3, 10, 0, 1, 20, 18, 19, 4, 15, 13, 4, 20, 18, 14, 19, 0, 6, 4, 15, 0, 17, 0, 8, 13, 8, 4, 13, 19, 11, 0, 8, 3, 18, 15, 4, 18, 19, 4, 17, 0, 12, 15, 4, 2, 8, 4, 20, 23, 21, 14, 12, 8, 4, 21, 14, 20, 19, 4, 5, 14, 20, 17, 18, 12, 0, 9, 14, 17, 13, 8, 0, 13, 19, 7, 14, 2, 7, 4, 18, 4, 12, 4, 4, 2, 7, 4, 13, 4, 12, 0, 17, 17, 0, 15, 4, 19, 4, 18, 18, 0, 15, 8, 13, 14, 13, 3, 4, 18, 1, 0, 11, 0, 8, 6, 17, 4, 2, 18, 18, 8, 19, 20, 0, 21, 14, 19, 4, 17, 21, 8, 3, 4, 14, 13, 8, 14, 13, 18, 16, 20, 4, 19, 4, 15, 4, 19, 4, 4, 21, 14, 8, 17, 4, 13, 8, 4, 17, 0, 6, 4, 17, 4, 17, 17, 14, 13, 6, 4, 18, 4, 12, 4, 18, 3, 4, 5, 8, 19, 6, 0, 12, 8, 13, 15, 4, 19, 4, 25, 6, 0, 17, 4, 25, 6, 4, 12, 8, 18, 6, 4, 11, 4, 4, 15, 14, 4, 11, 4, 0, 13, 8, 12, 4, 11, 14, 6, 4, 4, 4, 12, 20, 4, 18, 15, 8, 25, 25, 0, 2, 17, 4, 20, 23, 17, 14, 2, 7, 4, 17, 0, 8, 11, 18, 4, 17, 17, 4, 17, 2, 8, 19, 4, 25, 11, 14, 6, 4, 25, 4, 13, 6, 8, 13, 18, 0, 11, 8, 17, 11, 14, 6, 4, 18, 0, 1, 8, 12, 4, 0, 6, 0, 2, 4, 6, 4, 12, 8, 4, 0, 21, 4, 20, 23, 15, 4, 17, 11, 4, 0, 12, 4, 17, 18, 15, 4, 11, 11, 4, 2, 8, 19, 4, 4, 15, 0, 17, 19, 8, 18, 4, 12, 4, 25, 6, 4, 11, 4, 17, 3, 4, 15, 14, 19, 2, 20, 8, 19, 18, 0, 21, 8, 18, 4, 2, 8, 19, 4, 18, 18, 8, 19, 14, 19, 2, 8, 19, 0, 8, 18, 4, 12, 0, 19, 1, 14, 13, 3, 8, 11, 14, 6, 4, 0, 8, 13, 5, 14, 18, 5, 14, 8, 4, 18, 4, 13, 21, 8, 0, 1, 0, 19, 8, 19, 17, 20, 3, 4, 18, 11, 14, 24, 4, 17, 3, 4, 5, 8, 18, 2, 8, 19, 0, 19, 19, 4, 12, 15, 4, 3, 14, 20, 4, 4, 0, 20, 19, 4, 11, 2, 11, 14, 18, 4, 18, 4, 0, 20, 23, 8, 18, 14, 11, 4, 7, 0, 2, 7, 4, 12, 0, 19, 4, 17, 1, 14, 17, 3, 4, 15, 8, 15, 4, 17, 2, 14, 13, 19, 4, 5, 8, 11, 12, 0, 13, 14, 20, 4, 17, 3, 4, 1, 0, 19, 1, 4, 19, 14, 13, 12, 0, 13, 8, 4, 14, 20, 17, 18, 4, 18, 0, 1, 17, 4, 5, 8, 6, 4, 4, 17, 14, 2, 10, 18, 2, 11, 14, 17, 4, 2, 7, 0, 14, 18, 18, 20, 2, 4, 18, 0, 2, 7, 0, 19, 21, 8, 6, 13, 4, 17, 14, 1, 14, 19, 2, 20, 8, 17, 0, 2, 20, 8, 18, 4, 0, 8, 6, 20, 18, 18, 0, 2, 17, 0, 18, 20, 2, 4, 25, 18, 0, 14, 20, 11, 4, 6, 0, 17, 4, 12, 4, 13, 20, 18, 15, 14, 20, 11, 18, 18, 20, 2, 4, 4, 0, 13, 8, 12, 0, 5, 4, 13, 3, 20, 6, 4, 11, 4, 18, 0, 21, 8, 18, 0, 5, 8, 6, 4, 18, 21, 14, 19, 4, 25, 12, 0, 12, 8, 4, 15, 7, 0, 18, 4, 12, 14, 13, 19, 18, 11, 8, 19, 17, 4, 0, 1, 20, 18, 4, 13, 8, 4, 2, 4, 12, 8, 2, 17, 14, 5, 8, 6, 4, 17, 6, 4, 11, 4, 25, 1, 8, 9, 14, 20, 5, 8, 6, 4, 0, 6, 4, 11, 0, 19, 19, 0, 11, 20, 18, 14, 17, 13, 4, 4, 19, 0, 2, 7, 0, 21, 8, 2, 4, 18, 16, 20, 0, 18, 8, 6, 8, 11, 4, 19, 12, 0, 11, 11, 4, 19, 8, 6, 17, 4, 2, 4, 17, 5, 18, 2, 14, 17, 13, 4, 4, 19, 0, 13, 6, 11, 4, 2, 7, 4, 2, 0, 1, 11, 4, 11, 14, 13, 6, 4, 21, 14, 19, 4, 4, 13, 14, 20, 4, 18, 0, 1, 1, 4, 18, 3, 4, 11, 8, 19, 11, 4, 2, 7, 0, 15, 14, 8, 17, 4, 17, 4, 11, 8, 4, 2, 11, 14, 17, 0, 2, 8, 17, 4, 4, 13, 0, 8, 21, 4, 3, 14, 18, 4, 18, 8, 18, 14, 11, 0, 15, 0, 2, 19, 4, 5, 11, 20, 19, 4, 1, 14, 17, 13, 4, 2, 20, 11, 19, 4, 1, 14, 17, 3, 0, 17, 20, 18, 4, 18, 13, 14, 20, 4, 4, 21, 0, 13, 19, 4, 4, 17, 17, 0, 8, 0, 1, 8, 12, 0, 21, 14, 19, 4, 18, 5, 0, 17, 2, 4, 0, 6, 0, 2, 0, 4, 17, 17, 4, 18, 4, 17, 17, 4, 25, 19, 7, 4, 18, 4, 18, 0, 11, 8, 18, 15, 4, 17, 8, 11, 14, 17, 13, 4, 18, 15, 8, 13, 2, 4, 7, 0, 11, 11, 18, 5, 8, 6, 4, 25, 2, 7, 8, 2, 18, 19, 14, 13, 13, 4, 17, 4, 2, 20, 11, 15, 0, 2, 7, 0, 5, 4, 13, 3, 18, 1, 14, 13, 3, 18, 14, 17, 13, 4, 17, 18, 0, 1, 14, 19, 1, 8, 19, 4, 18, 17, 4, 21, 8, 18, 18, 0, 11, 8, 4, 3, 0, 19, 4, 17, 15, 8, 13, 2, 0, 4, 2, 20, 12, 4, 3, 4, 15, 11, 20, 7, 0, 19, 4, 17, 5, 4, 13, 3, 4, 17, 4, 11, 8, 18, 12, 4, 13, 20, 4, 13, 20, 8, 17, 4, 19, 14, 0, 18, 19, 13, 14, 20, 0, 8, 13, 0, 21, 17, 4, 13, 14, 20, 4, 25, 5, 17, 4, 8, 13, 13, 14, 20, 0, 18, 2, 14, 11, 8, 18, 3, 14, 20, 4, 18, 12, 14, 17, 13, 4, 19, 17, 4, 21, 4, 1, 8, 11, 11, 4, 18, 0, 20, 19, 18, 17, 4, 11, 20, 19, 3, 0, 19, 4, 4, 18, 0, 11, 8, 19, 11, 4, 6, 0, 11, 17, 8, 4, 13, 18, 7, 0, 17, 4, 12, 3, 4, 2, 4, 18, 2, 11, 14, 20, 4, 2, 4, 17, 13, 4, 21, 8, 1, 17, 4, 5, 17, 14, 11, 4, 21, 0, 13, 19, 0, 14, 17, 13, 4, 25, 0, 1, 20, 18, 0, 6, 11, 0, 2, 0, 14, 17, 13, 0, 19, 12, 20, 17, 4, 18, 17, 8, 19, 4, 18, 7, 8, 18, 18, 4, 1, 20, 11, 11, 4, 21, 4, 23, 4, 17, 1, 8, 18, 14, 20, 3, 0, 19, 4, 25, 12, 0, 19, 4, 25, 6, 8, 5, 11, 4, 17, 4, 11, 8, 19, 2, 14, 20, 18, 20, 0, 11, 8, 1, 8, 5, 4, 13, 19, 4, 12, 0, 17, 8, 13, 3, 14, 20, 4, 17, 4, 11, 8, 19, 4, 13, 0, 8, 5, 18, 4, 6, 0, 17, 0, 15, 4, 2, 7, 4, 2, 8, 17, 4, 17, 3, 4, 5, 8, 4, 19, 0, 19, 4, 17, 11, 0, 1, 14, 18, 17, 4, 11, 20, 18, 12, 8, 4, 11, 18, 2, 20, 11, 14, 19, 5, 4, 8, 13, 19, 7, 8, 18, 18, 0, 17, 14, 3, 4, 17, 1, 14, 20, 17, 6, 17, 4, 21, 8, 19, 17, 20, 8, 13, 0, 2, 17, 0, 1, 4, 12, 0, 19, 4, 18, 11, 0, 18, 18, 0, 4, 15, 0, 21, 4, 12, 0, 19, 4, 4, 17, 4, 11, 20, 4, 2, 17, 0, 8, 4, 2, 20, 8, 19, 4, 1, 8, 2, 7, 4, 4, 21, 0, 3, 4, 5, 17, 14, 11, 0, 7, 0, 13, 19, 4, 2, 14, 16, 20, 4, 6, 0, 11, 14, 15, 20, 13, 8, 4, 18, 17, 0, 12, 15, 0, 0, 21, 8, 3, 4, 15, 0, 15, 4, 18, 0, 8, 6, 11, 4, 21, 8, 21, 17, 4, 6, 4, 17, 4, 25, 0, 2, 19, 8, 5, 6, 4, 17, 4, 4, 21, 14, 20, 4, 4, 4, 21, 8, 4, 17, 7, 0, 11, 19, 4, 17, 4, 21, 4, 19, 11, 14, 6, 8, 18, 1, 4, 17, 4, 19, 21, 8, 19, 0, 11, 7, 0, 19, 0, 8, 5, 11, 14, 20, 4, 21, 4, 20, 21, 4, 6, 4, 17, 4, 18, 6, 0, 6, 4, 18, 7, 0, 19, 4, 25, 21, 4, 23, 4, 4, 12, 4, 6, 14, 19, 1, 0, 13, 3, 0, 17, 4, 15, 8, 19, 6, 0, 19, 4, 17, 1, 0, 25, 0, 17, 1, 17, 8, 13, 18, 15, 8, 6, 4, 18, 15, 4, 17, 8, 17, 21, 8, 1, 17, 0, 2, 14, 20, 3, 18, 5, 17, 4, 12, 8, 7, 0, 19, 4, 4, 4, 11, 8, 18, 4, 1, 4, 17, 6, 4, 7, 0, 19, 0, 19, 2, 14, 20, 18, 4, 17, 0, 21, 8, 13, 12, 0, 20, 21, 4, 15, 4, 2, 7, 0, 21, 4, 0, 20, 23, 11, 14, 20, 15, 4, 0, 1, 14, 17, 3, 2, 11, 0, 13, 18, 1, 0, 21, 4, 17, 5, 4, 8, 13, 18, 19, 4, 17, 13, 4, 6, 17, 0, 21, 0, 15, 14, 10, 4, 17, 1, 11, 4, 12, 4, 4, 11, 8, 17, 4, 18, 11, 8, 15, 18, 2, 4, 17, 13, 0, 12, 0, 5, 8, 0, 0, 8, 13, 4, 4, 21, 14, 20, 4, 17, 3, 20, 13, 4, 18, 2, 11, 14, 20, 0, 21, 0, 11, 18, 4, 5, 14, 17, 6, 4, 1, 0, 2, 7, 4, 12, 14, 8, 19, 4, 12, 0, 19, 7, 18, 12, 0, 17, 10, 18, 21, 4, 23, 4, 18, 11, 14, 24, 0, 11, 21, 14, 20, 4, 18, 6, 0, 19, 4, 4, 6, 11, 14, 1, 4, 6, 8, 17, 11, 18, 18, 14, 11, 3, 4, 9, 4, 19, 14, 13, 21, 4, 23, 4, 25, 5, 11, 14, 20, 18, 13, 0, 19, 0, 11, 4, 12, 4, 19, 18, 11, 4, 21, 4, 17, 12, 24, 19, 7, 4, 6, 17, 0, 3, 4, 21, 4, 23, 0, 8, 18, 8, 17, 14, 15, 2, 11, 14, 15, 4, 2, 8, 17, 4, 18, 5, 14, 8, 13, 18, 6, 0, 13, 6, 18, 1, 4, 17, 2, 4, 19, 4, 18, 19, 4, 4, 12, 8, 18, 4, 14, 20, 4, 18, 19, 7, 24, 12, 13, 4, 21, 8, 14, 11, 18, 1, 11, 20, 4, 18, 15, 11, 0, 13, 4, 2, 8, 17, 4, 25, 7, 0, 13, 19, 0, 2, 17, 4, 15, 4, 13, 20, 8, 17, 0, 2, 11, 8, 13, 18, 6, 0, 19, 4, 18, 0, 11, 11, 4, 25, 8, 3, 14, 11, 4, 13, 20, 8, 18, 4, 8, 13, 14, 20, 8, 17, 7, 20, 12, 4, 15, 8, 15, 8, 18, 12, 0, 11, 4, 18, 4, 21, 0, 3, 0, 17, 14, 3, 4, 18, 6, 14, 12, 12, 4, 4, 15, 8, 4, 17, 2, 7, 14, 15, 4, 8, 12, 15, 14, 19, 3, 4, 5, 8, 0, 19, 0, 19, 4, 25, 17, 14, 3, 0, 8, 17, 14, 3, 4, 4, 2, 0, 13, 14, 13, 6, 0, 19, 4, 25, 21, 14, 20, 0, 8, 17, 14, 3, 4, 25, 19, 0, 19, 0, 8, 15, 20, 0, 13, 19, 18, 8, 19, 4, 18, 15, 20, 11, 11, 18, 2, 7, 0, 11, 4, 12, 20, 11, 4, 18, 14, 18, 8, 4, 17, 3, 4, 6, 0, 19, 17, 20, 0, 8, 19, 17, 20, 0, 13, 19, 19, 0, 19, 4, 18, 2, 0, 18, 4, 18, 17, 20, 4, 13, 19, 15, 14, 11, 8, 4, 5, 11, 0, 18, 7, 6, 8, 5, 11, 0, 1, 8, 11, 0, 13, 6, 0, 19, 0, 19, 3, 4, 13, 18, 4, 2, 0, 11, 4, 17, 3, 8, 2, 19, 4, 1, 17, 0, 21, 14, 0, 5, 5, 20, 19, 4, 6, 14, 20, 19, 13, 14, 24, 0, 20, 1, 14, 24, 0, 20, 15, 8, 4, 20, 23, 15, 14, 11, 8, 18, 2, 24, 6, 13, 4, 0, 20, 17, 0, 18, 15, 11, 0, 13, 0, 19, 4, 19, 20, 4, 4, 15, 8, 13, 4, 19, 18, 0, 17, 18, 2, 0, 15, 19, 4, 7, 4, 11, 11, 14, 2, 0, 11, 4, 25, 17, 4, 13, 8, 4, 15, 0, 17, 2, 8, 6, 4, 17, 1, 4, 17, 20, 0, 8, 18, 9, 20, 17, 24, 18, 5, 8, 0, 13, 19, 11, 0, 2, 4, 19, 2, 0, 13, 14, 19, 17, 20, 4, 4, 18, 12, 4, 11, 14, 13, 0, 1, 14, 8, 4, 17, 20, 14, 13, 18, 19, 17, 8, 15, 4, 5, 17, 4, 11, 4, 17, 4, 3, 8, 18, 0, 8, 13, 4, 18, 15, 20, 17, 4, 4, 19, 4, 18, 19, 0, 5, 8, 0, 8, 19, 2, 24, 2, 11, 4, 19, 24, 17, 0, 13, 20, 18, 20, 17, 4, 2, 0, 11, 4, 4, 17, 0, 12, 4, 18, 5, 8, 0, 8, 18, 2, 17, 0, 13, 18, 5, 8, 14, 13, 18, 5, 8, 4, 13, 19, 1, 20, 19, 8, 13, 11, 0, 19, 8, 13, 5, 8, 4, 17, 0, 1, 20, 2, 7, 4, 1, 17, 14, 3, 4, 20, 17, 8, 13, 4, 15, 8, 15, 0, 8, 17, 0, 8, 3, 8, 18, 19, 4, 0, 10, 15, 14, 6, 13, 4, 1, 4, 17, 2, 0, 13, 0, 21, 17, 0, 17, 0, 3, 0, 17, 15, 11, 4, 20, 17, 1, 8, 3, 14, 13, 18, 7, 14, 17, 19, 12, 14, 20, 11, 4, 9, 4, 0, 13, 18, 6, 0, 11, 14, 13, 17, 4, 18, 19, 14, 17, 0, 11, 4, 17, 21, 8, 17, 8, 11, 2, 0, 11, 4, 18, 3, 8, 13, 3, 4, 15, 4, 17, 8, 19, 15, 4, 18, 14, 18, 2, 0, 12, 15, 4, 12, 0, 13, 8, 0, 17, 0, 24, 4, 17, 7, 14, 18, 19, 14, 1, 0, 18, 4, 4, 18, 19, 14, 2, 10, 14, 20, 19, 17, 4, 19, 0, 18, 18, 0, 17, 14, 12, 0, 13, 14, 21, 0, 11, 4, 1, 17, 8, 3, 4, 5, 0, 11, 18, 4, 0, 21, 0, 8, 19, 0, 21, 14, 8, 17, 0, 21, 0, 8, 18, 0, 21, 14, 13, 18, 0, 24, 0, 13, 19, 0, 21, 8, 4, 25, 0, 8, 4, 13, 19, 0, 20, 17, 4, 25, 0, 24, 14, 13, 18, 4, 20, 18, 18, 4, 4, 20, 12, 4, 18, 4, 20, 19, 4, 18, 5, 0, 8, 17, 4, 4, 19, 0, 8, 19, 4, 19, 0, 13, 19, 18, 4, 17, 0, 8, 18, 4, 17, 4, 25, 4, 19, 8, 4, 25, 18, 4, 17, 0, 18, 18, 14, 24, 4, 25, 5, 20, 12, 4, 18, 5, 20, 18, 18, 4, 5, 20, 19, 4, 18, 5, 4, 17, 0, 8, 5, 0, 18, 18, 4, 5, 0, 8, 19, 4, 5, 4, 17, 0, 18, 5, 0, 8, 19, 18, 5, 4, 17, 4, 25, 5, 8, 12, 4, 18, 5, 8, 18, 18, 4, 5, 8, 19, 4, 18, 0, 8, 11, 11, 4, 0, 11, 11, 4, 4, 8, 17, 0, 8, 19, 0, 11, 11, 4, 18, 8, 17, 0, 8, 18, 8, 17, 14, 13, 18, 0, 11, 11, 0, 8, 8, 17, 14, 13, 19, 8, 17, 8, 4, 25, 0, 11, 11, 0, 19, 0, 11, 11, 0, 18, 3, 8, 19, 4, 18, 3, 8, 17, 0, 8, 3, 8, 17, 0, 18, 3, 8, 17, 4, 25, 3, 8, 18, 4, 18, 3, 8, 12, 4, 18, 2, 4, 19, 19, 4, 15, 20, 12, 4, 18, 15, 20, 18, 18, 4, 15, 20, 19, 4, 18, 21, 14, 20, 11, 20, 19, 14, 20, 19, 4, 18, 0, 21, 4, 25, 21, 14, 24, 4, 25, 21, 4, 17, 17, 0, 18, 0, 2, 7, 4, 21, 8, 12, 4, 18, 18, 20, 12, 4, 18, 18, 20, 18, 18, 4, 0, 11, 14, 17, 18, 0, 20, 18, 18, 8, 21, 8, 4, 13, 18, 2, 7, 14, 18, 4, 21, 4, 13, 8, 17, 21, 8, 4, 13, 19, 3, 4, 21, 4, 25, 21, 14, 19, 17, 4, 19, 4, 12, 15, 18, 21, 4, 13, 4, 25, 3, 4, 21, 17, 0, 3, 14, 8, 21, 4, 3, 20, 12, 4, 18, 3, 20, 18, 18, 4, 21, 4, 13, 20, 4, 21, 4, 13, 20, 18, 7, 14, 12, 12, 4, 15, 4, 19, 8, 19, 2, 17, 14, 8, 18, 15, 17, 4, 13, 3, 15, 0, 17, 11, 4, 5, 4, 12, 12, 4, 15, 17, 8, 18, 4, 13, 14, 19, 17, 4, 9, 14, 20, 17, 18, 1, 14, 13, 13, 4, 12, 14, 13, 3, 4, 15, 0, 18, 18, 4, 15, 0, 17, 11, 0, 15, 4, 13, 18, 4, 18, 20, 8, 21, 4, 0, 20, 19, 17, 4, 5, 0, 11, 11, 20, 2, 17, 14, 8, 19, 6, 17, 0, 13, 3, 15, 0, 18, 18, 0, 2, 17, 14, 8, 4, 2, 17, 20, 4, 18, 0, 8, 12, 4, 18, 0, 8, 12, 4, 17, 0, 8, 12, 4, 25, 7, 4, 20, 17, 4, 3, 14, 13, 13, 4, 5, 8, 11, 11, 4, 0, 8, 12, 4, 4, 18, 4, 20, 11, 4, 0, 8, 12, 0, 19, 0, 8, 12, 0, 8, 15, 4, 13, 18, 0, 4, 13, 19, 17, 4, 12, 14, 8, 13, 18, 12, 0, 8, 13, 18, 11, 4, 20, 17, 18, 3, 14, 13, 13, 0, 12, 4, 19, 19, 4, 21, 14, 8, 11, 0, 12, 8, 18, 4, 18, 12, 8, 4, 20, 23, 12, 8, 12, 4, 18, 19, 17, 14, 8, 18, 4, 11, 11, 4, 18, 18, 4, 20, 11, 18, 17, 4, 18, 19, 4, 2, 14, 12, 12, 4, 17, 4, 18, 19, 0, 1, 4, 11, 11, 4, 15, 14, 17, 19, 4, 2, 14, 13, 13, 20, 0, 12, 14, 20, 17, 18, 14, 17, 19, 8, 0, 18, 18, 4, 25, 15, 4, 17, 4, 18, 14, 4, 8, 11, 18, 15, 0, 17, 19, 4, 9, 20, 18, 19, 4, 2, 14, 20, 15, 18, 9, 4, 20, 13, 4, 15, 11, 0, 2, 4, 12, 4, 17, 4, 18, 19, 4, 19, 4, 18, 2, 14, 17, 15, 18, 19, 4, 13, 8, 17, 19, 4, 17, 17, 4, 19, 8, 4, 13, 19, 13, 20, 8, 19, 18, 1, 4, 0, 20, 23, 4, 13, 5, 8, 13, 19, 8, 4, 13, 18, 21, 17, 0, 8, 4, 3, 8, 4, 20, 23, 19, 4, 13, 4, 25, 12, 4, 20, 17, 19, 12, 0, 12, 0, 13, 18, 20, 17, 4, 18, 12, 4, 20, 17, 18, 0, 8, 13, 18, 8, 12, 4, 12, 4, 18, 12, 4, 20, 17, 4, 12, 0, 19, 8, 13, 15, 11, 0, 8, 19, 21, 17, 0, 8, 18, 0, 8, 3, 4, 17, 19, 4, 13, 20, 4, 15, 4, 17, 3, 20, 9, 14, 20, 4, 17, 19, 4, 13, 20, 18, 21, 8, 4, 20, 23, 2, 14, 4, 20, 17, 21, 8, 11, 11, 4, 18, 14, 8, 17, 18, 15, 4, 8, 13, 4, 14, 20, 0, 8, 18, 5, 8, 13, 8, 17, 2, 4, 11, 20, 8, 14, 20, 21, 17, 4, 19, 20, 4, 17, 0, 19, 20, 4, 13, 19, 19, 20, 0, 8, 19, 19, 20, 4, 4, 18, 19, 20, 14, 13, 18, 19, 20, 0, 8, 18, 19, 20, 8, 4, 25, 18, 20, 8, 19, 4, 17, 4, 13, 3, 18, 5, 8, 13, 8, 19, 17, 4, 13, 3, 20, 5, 17, 4, 17, 4, 19, 17, 0, 8, 13, 15, 8, 4, 3, 18, 19, 8, 17, 4, 17, 17, 4, 13, 3, 4, 21, 8, 21, 4, 25, 15, 4, 17, 3, 18, 21, 8, 21, 17, 0, 5, 0, 2, 14, 13, 21, 4, 2, 20, 4, 21, 4, 2, 20, 19, 21, 4, 2, 20, 18, 19, 14, 12, 1, 4, 2, 14, 19, 4, 18, 19, 0, 1, 11, 4, 0, 13, 13, 4, 4, 9, 14, 20, 4, 25, 4, 13, 21, 8, 4, 15, 4, 17, 3, 4, 0, 18, 18, 8, 18, 0, 8, 3, 4, 25, 9, 14, 20, 4, 4, 9, 14, 20, 0, 8, 9, 14, 20, 4, 18, 9, 14, 20, 0, 19, 4, 13, 19, 17, 0, 3, 14, 20, 19, 4, 19, 14, 12, 1, 0, 12, 0, 13, 6, 4, 15, 4, 20, 17, 18, 4, 2, 17, 8, 19, 8, 3, 4, 4, 18, 12, 4, 17, 2, 8, 12, 14, 13, 19, 4, 0, 8, 3, 4, 4, 17, 14, 20, 19, 4, 0, 8, 3, 4, 18, 0, 8, 3, 0, 8, 0, 8, 3, 0, 19, 19, 8, 17, 4, 25, 15, 11, 4, 8, 13, 2, 0, 20, 18, 4, 19, 8, 17, 4, 18, 19, 8, 17, 4, 4, 15, 14, 17, 19, 0, 13, 14, 8, 17, 4, 19, 8, 17, 0, 8, 19, 8, 17, 0, 19, 19, 8, 17, 0, 18, 18, 14, 17, 19, 4, 15, 0, 24, 4, 17, 15, 14, 18, 4, 17, 15, 11, 0, 8, 18, 0, 18, 18, 8, 19, 14, 17, 3, 17, 4, 11, 0, 1, 0, 18, 1, 11, 0, 13, 2, 6, 4, 13, 17, 4, 21, 14, 8, 2, 8, 11, 8, 21, 17, 4, 13, 14, 8, 17, 18, 21, 4, 17, 17, 4, 15, 8, 4, 2, 4, 3, 14, 17, 12, 8, 12, 14, 13, 19, 0, 0, 20, 2, 20, 13, 4, 2, 17, 8, 18, 11, 14, 13, 6, 18, 2, 7, 8, 4, 13, 4, 2, 14, 11, 4, 18, 0, 11, 20, 19, 15, 14, 18, 4, 4, 0, 15, 17, 4, 18, 3, 14, 17, 12, 4, 6, 0, 17, 3, 4, 15, 14, 18, 4, 25, 17, 14, 20, 6, 4, 15, 0, 17, 19, 18, 15, 0, 17, 20, 19, 1, 20, 21, 4, 25, 15, 14, 18, 4, 18, 18, 0, 11, 11, 4, 5, 14, 20, 19, 20, 15, 14, 18, 0, 8, 11, 4, 21, 4, 25, 11, 8, 18, 4, 25, 15, 14, 18, 0, 19, 11, 4, 21, 4, 4, 15, 14, 18, 0, 18, 1, 14, 8, 21, 4, 1, 14, 8, 17, 0, 9, 4, 19, 19, 4, 18, 14, 4, 20, 17, 11, 4, 21, 0, 8, 5, 14, 11, 11, 4, 1, 20, 12, 4, 18, 11, 4, 21, 4, 18, 1, 20, 18, 18, 4, 19, 17, 20, 2, 18, 19, 14, 20, 19, 18, 19, 24, 15, 4, 18, 11, 8, 17, 0, 8, 11, 8, 17, 0, 18, 6, 0, 17, 3, 0, 11, 8, 18, 4, 18, 11, 4, 21, 0, 19, 11, 8, 17, 4, 25, 11, 20, 12, 4, 18, 6, 0, 6, 13, 4, 4, 5, 5, 4, 19, 15, 0, 24, 4, 25, 5, 14, 20, 19, 4, 15, 0, 24, 4, 4, 15, 0, 24, 4, 18, 15, 0, 17, 20, 4, 15, 0, 17, 20, 18, 15, 0, 24, 0, 8, 15, 0, 24, 0, 19, 1, 14, 20, 19, 18, 9, 4, 19, 4, 4, 19, 14, 20, 17, 18, 9, 4, 19, 4, 25, 12, 4, 17, 3, 4, 11, 8, 1, 17, 4, 9, 4, 19, 4, 18, 9, 4, 19, 0, 8, 11, 8, 4, 20, 23, 15, 17, 4, 19, 4, 9, 4, 19, 0, 19, 9, 4, 19, 0, 18, 15, 17, 4, 19, 18, 7, 14, 19, 4, 11, 6, 4, 18, 19, 4, 18, 0, 13, 6, 18, 0, 17, 12, 4, 18, 5, 0, 20, 19, 4, 14, 12, 1, 17, 4, 17, 8, 0, 8, 19, 5, 4, 17, 12, 4, 14, 13, 2, 11, 4, 9, 14, 11, 8, 4, 3, 4, 1, 20, 19, 5, 14, 17, 12, 4, 6, 0, 6, 13, 0, 15, 0, 17, 12, 8, 5, 17, 14, 8, 3, 15, 7, 14, 19, 14, 17, 8, 4, 13, 19, 17, 8, 0, 8, 18, 15, 17, 8, 4, 17, 3, 17, 14, 11, 4, 17, 8, 14, 13, 18, 17, 8, 17, 0, 8, 3, 14, 8, 6, 19, 17, 8, 17, 0, 18, 17, 8, 17, 4, 25, 17, 8, 12, 4, 18, 17, 8, 8, 4, 25, 5, 4, 17, 12, 0, 2, 7, 4, 5, 18, 2, 11, 0, 8, 17, 14, 3, 4, 20, 17, 2, 14, 20, 17, 19, 2, 8, 4, 11, 18, 11, 8, 4, 20, 18, 6, 17, 0, 21, 4, 2, 0, 2, 7, 4, 8, 12, 0, 6, 4, 17, 4, 2, 20, 19, 2, 14, 20, 17, 20, 2, 14, 20, 17, 18, 2, 17, 8, 4, 17, 9, 0, 12, 1, 4, 18, 8, 6, 13, 4, 18, 0, 20, 21, 4, 17, 4, 2, 20, 18, 15, 17, 8, 4, 25, 17, 4, 2, 20, 4, 1, 0, 19, 19, 20, 11, 8, 6, 13, 4, 15, 17, 8, 4, 18, 21, 14, 11, 4, 17, 15, 17, 8, 0, 8, 15, 17, 8, 4, 4, 15, 17, 8, 0, 19, 0, 6, 8, 17, 0, 21, 0, 11, 20, 19, 21, 0, 11, 4, 25, 18, 2, 4, 13, 4, 18, 20, 5, 5, 8, 2, 0, 17, 19, 4, 21, 0, 11, 20, 4, 2, 14, 20, 17, 4, 5, 8, 11, 12, 18, 17, 4, 12, 8, 18, 0, 17, 1, 17, 4, 5, 0, 2, 4, 18, 2, 7, 4, 17, 4, 12, 0, 17, 8, 18, 4, 19, 0, 19, 18, 1, 14, 20, 6, 4, 17, 4, 21, 4, 18, 12, 8, 11, 11, 4, 2, 0, 2, 7, 0, 1, 14, 8, 19, 4, 5, 17, 14, 13, 19, 7, 0, 20, 19, 4, 18, 4, 11, 14, 13, 2, 7, 4, 17, 18, 17, 4, 12, 8, 19, 0, 3, 14, 17, 4, 19, 0, 13, 19, 4, 17, 4, 12, 4, 19, 3, 4, 13, 19, 18, 7, 14, 13, 19, 4, 2, 0, 5, 4, 18, 21, 8, 13, 6, 19, 2, 17, 8, 4, 25, 9, 14, 11, 8, 18, 2, 17, 8, 4, 18, 2, 17, 8, 0, 8, 0, 21, 8, 14, 13, 19, 0, 8, 17, 4, 0, 12, 4, 13, 4, 2, 17, 8, 0, 19, 2, 17, 8, 4, 4, 3, 17, 14, 8, 19, 1, 0, 18, 18, 4, 5, 11, 8, 2, 18, 1, 11, 4, 20, 4, 2, 14, 20, 15, 4, 21, 4, 13, 3, 20, 3, 20, 17, 4, 18, 18, 0, 20, 21, 0, 1, 14, 17, 3, 18, 5, 14, 17, 19, 4, 21, 14, 11, 4, 4, 1, 0, 11, 11, 4, 2, 14, 8, 13, 18, 19, 4, 11, 11, 4, 21, 14, 11, 4, 18, 15, 14, 2, 7, 4, 18, 14, 20, 17, 8, 3, 0, 12, 4, 18, 5, 11, 4, 20, 17, 12, 0, 17, 8, 4, 21, 14, 11, 4, 25, 2, 7, 14, 8, 23, 21, 14, 11, 0, 8, 21, 4, 13, 3, 18, 21, 14, 11, 0, 19, 0, 12, 20, 18, 4, 1, 11, 4, 20, 18, 18, 20, 15, 4, 17, 15, 11, 20, 8, 4, 2, 4, 18, 18, 4, 15, 14, 18, 19, 4, 21, 4, 13, 19, 18, 2, 14, 20, 15, 0, 2, 0, 18, 18, 4, 17, 4, 21, 20, 4, 0, 15, 15, 4, 11, 12, 0, 17, 8, 0, 17, 4, 21, 20, 18, 18, 0, 11, 4, 18, 21, 4, 13, 3, 4, 17, 4, 21, 4, 17, 7, 0, 20, 19, 18, 19, 0, 8, 18, 4, 19, 0, 8, 17, 0, 18, 0, 20, 19, 4, 19, 20, 12, 4, 18, 12, 4, 13, 19, 8, 2, 7, 0, 20, 3, 15, 4, 0, 20, 23, 6, 11, 0, 2, 4, 5, 4, 19, 4, 18, 18, 4, 17, 17, 4, 3, 4, 18, 8, 17, 4, 19, 17, 4, 18, 0, 12, 4, 13, 0, 12, 4, 13, 4, 17, 11, 0, 2, 7, 4, 11, 4, 21, 17, 4, 18, 0, 13, 19, 4, 11, 0, 13, 2, 4, 11, 4, 6, 4, 17, 17, 14, 1, 4, 18, 11, 0, 13, 2, 0, 2, 7, 0, 19, 18, 19, 4, 13, 3, 20, 14, 18, 0, 8, 19, 18, 0, 20, 19, 0, 11, 0, 2, 7, 0, 7, 8, 21, 4, 17, 0, 6, 4, 13, 19, 1, 0, 13, 3, 4, 5, 14, 17, 19, 18, 5, 14, 17, 4, 19, 15, 8, 19, 8, 4, 6, 14, 18, 18, 4, 5, 14, 20, 11, 4, 7, 4, 17, 1, 4, 0, 12, 20, 18, 0, 1, 17, 20, 11, 4, 2, 0, 11, 12, 4, 21, 8, 3, 4, 18, 14, 1, 9, 4, 19, 1, 4, 1, 4, 18, 2, 4, 18, 18, 0, 18, 0, 11, 14, 13, 14, 18, 0, 8, 18, 2, 17, 8, 12, 4, 2, 0, 18, 18, 0, 17, 4, 21, 4, 25, 6, 20, 4, 17, 4, 17, 0, 3, 8, 14, 4, 13, 5, 4, 17, 19, 4, 13, 3, 18, 19, 4, 13, 19, 4, 2, 7, 0, 12, 15, 17, 8, 17, 4, 18, 17, 4, 21, 4, 4, 14, 18, 4, 13, 19, 15, 11, 0, 6, 4, 17, 4, 21, 0, 8, 4, 19, 0, 6, 4, 14, 18, 0, 13, 19, 17, 4, 21, 0, 19, 21, 4, 17, 19, 4, 17, 4, 15, 0, 18, 12, 4, 13, 4, 4, 14, 18, 4, 17, 0, 17, 14, 20, 11, 4, 15, 14, 8, 3, 18, 19, 17, 14, 20, 18, 14, 18, 14, 13, 18, 12, 14, 17, 19, 4, 14, 18, 8, 4, 25, 19, 4, 13, 3, 4, 14, 18, 4, 4, 18, 9, 14, 8, 4, 18, 9, 20, 17, 4, 17, 15, 17, 4, 21, 20, 12, 4, 13, 4, 18, 2, 0, 12, 15, 18, 5, 17, 0, 8, 18, 12, 4, 13, 4, 25, 3, 0, 13, 18, 4, 5, 20, 12, 4, 17, 12, 4, 13, 19, 4, 7, 4, 17, 14, 18, 0, 3, 14, 17, 0, 17, 14, 20, 11, 0, 12, 4, 13, 0, 8, 12, 4, 13, 0, 19, 9, 20, 17, 4, 25, 5, 8, 11, 4, 17, 12, 14, 17, 19, 18, 17, 8, 2, 7, 4, 9, 20, 17, 4, 18, 13, 4, 8, 6, 4, 3, 0, 13, 18, 0, 6, 17, 8, 18, 4, 21, 4, 17, 19, 18, 9, 20, 17, 4, 4, 9, 20, 17, 0, 8, 6, 14, 17, 6, 4, 18, 4, 2, 7, 4, 15, 0, 6, 4, 18, 11, 14, 20, 17, 3, 6, 14, 20, 19, 18, 1, 8, 4, 17, 4, 9, 0, 20, 13, 4, 19, 4, 13, 19, 0, 4, 23, 0, 2, 19, 1, 0, 8, 13, 18, 3, 20, 17, 4, 17, 1, 17, 20, 11, 0, 19, 14, 8, 11, 4, 6, 4, 13, 14, 20, 2, 0, 11, 12, 0, 2, 4, 13, 19, 18, 18, 14, 12, 12, 4, 4, 21, 8, 19, 4, 18, 14, 13, 13, 4, 5, 14, 11, 8, 4, 11, 0, 12, 15, 4, 11, 0, 17, 6, 4, 19, 17, 0, 2, 4, 18, 4, 8, 13, 18, 11, 0, 21, 4, 17, 13, 14, 19, 4, 18, 0, 21, 14, 20, 4, 1, 8, 4, 13, 18, 5, 0, 8, 12, 18, 5, 8, 23, 4, 17, 13, 4, 20, 21, 4, 4, 21, 8, 19, 0, 2, 17, 14, 8, 23, 12, 4, 19, 17, 4, 9, 20, 6, 4, 17, 5, 8, 11, 4, 25, 0, 17, 17, 4, 19, 19, 8, 19, 17, 4, 11, 0, 17, 12, 4, 12, 4, 11, 4, 17, 21, 4, 18, 19, 4, 15, 14, 12, 12, 4, 17, 4, 6, 11, 4, 2, 14, 20, 19, 4, 5, 8, 11, 4, 18, 5, 8, 11, 4, 4, 5, 8, 11, 0, 8, 15, 8, 17, 4, 18, 5, 20, 12, 4, 25, 16, 20, 4, 20, 4, 5, 8, 23, 4, 18, 5, 8, 11, 0, 19, 13, 4, 20, 5, 18, 16, 20, 4, 11, 18, 4, 13, 13, 20, 8, 2, 14, 11, 11, 4, 2, 17, 4, 4, 17, 19, 14, 8, 19, 18, 5, 20, 12, 4, 4, 11, 8, 18, 19, 4, 5, 8, 23, 4, 4, 15, 0, 8, 13, 18, 2, 14, 20, 11, 4, 5, 20, 12, 0, 8, 17, 14, 11, 4, 18, 5, 20, 12, 0, 19, 2, 17, 8, 18, 4, 12, 4, 11, 4, 4, 17, 0, 17, 4, 18, 4, 11, 4, 21, 4, 18, 14, 8, 13, 18, 5, 20, 18, 8, 11, 18, 14, 13, 13, 0, 17, 4, 8, 13, 4, 8, 3, 8, 14, 19, 1, 0, 8, 18, 4, 16, 20, 0, 17, 19, 3, 20, 17, 4, 4, 18, 14, 20, 2, 8, 3, 20, 17, 0, 19, 12, 4, 11, 4, 18, 5, 8, 23, 4, 25, 18, 24, 12, 15, 0, 5, 8, 23, 0, 8, 0, 12, 0, 13, 19, 2, 14, 20, 11, 0, 6, 17, 0, 2, 4, 5, 8, 23, 0, 19, 5, 8, 4, 17, 4, 5, 14, 17, 2, 4, 21, 8, 4, 8, 11, 17, 4, 15, 14, 18, 6, 4, 13, 8, 4, 12, 4, 11, 4, 25, 15, 8, 18, 19, 4, 2, 17, 4, 21, 4, 15, 14, 13, 19, 18, 12, 8, 13, 2, 4, 4, 11, 4, 21, 0, 12, 0, 18, 18, 4, 19, 0, 15, 4, 17, 3, 14, 20, 19, 0, 12, 4, 11, 0, 8, 12, 4, 11, 0, 19, 7, 0, 8, 13, 4, 20, 18, 8, 13, 4, 0, 21, 14, 20, 0, 2, 14, 11, 11, 0, 12, 14, 24, 4, 13, 15, 11, 0, 2, 0, 2, 7, 8, 4, 17, 15, 14, 8, 11, 18, 1, 0, 8, 18, 0, 11, 24, 2, 4, 4, 2, 14, 12, 19, 4, 9, 20, 6, 4, 25, 1, 14, 12, 1, 4, 9, 20, 6, 4, 0, 15, 0, 17, 8, 4, 5, 20, 24, 4, 25, 5, 8, 4, 17, 18, 19, 4, 17, 12, 4, 9, 20, 6, 4, 4, 4, 2, 11, 0, 19, 18, 8, 6, 13, 0, 18, 8, 4, 6, 4, 9, 20, 6, 4, 18, 21, 8, 17, 4, 17, 12, 0, 17, 17, 4, 18, 19, 24, 11, 4, 15, 14, 8, 13, 6, 15, 20, 17, 4, 18, 15, 14, 19, 4, 18, 17, 14, 18, 4, 18, 0, 13, 6, 4, 18, 15, 17, 4, 19, 0, 21, 14, 8, 4, 18, 5, 20, 8, 4, 18, 5, 20, 8, 17, 0, 0, 2, 19, 4, 18, 0, 8, 11, 4, 18, 5, 14, 17, 12, 0, 4, 19, 4, 13, 3, 3, 17, 0, 15, 18, 1, 14, 20, 11, 4, 11, 0, 21, 4, 4, 7, 20, 17, 11, 4, 2, 17, 4, 4, 4, 4, 15, 14, 20, 23, 2, 17, 4, 21, 0, 4, 15, 0, 8, 18, 2, 14, 17, 3, 4, 15, 0, 19, 19, 4, 11, 0, 21, 4, 25, 0, 3, 8, 4, 20, 13, 14, 12, 12, 4, 5, 8, 13, 4, 18, 21, 0, 18, 19, 4, 15, 4, 8, 13, 19, 1, 0, 17, 1, 4, 11, 0, 21, 4, 18, 13, 20, 0, 6, 4, 14, 4, 20, 5, 18, 15, 11, 4, 20, 19, 2, 17, 4, 4, 18, 18, 14, 13, 6, 4, 18, 4, 17, 8, 4, 11, 0, 21, 0, 8, 11, 8, 21, 17, 0, 21, 8, 19, 17, 4, 6, 4, 13, 4, 17, 5, 14, 17, 2, 0, 12, 8, 13, 4, 18, 11, 4, 2, 14, 13, 1, 17, 8, 18, 4, 17, 4, 6, 11, 0, 15, 8, 16, 20, 4, 5, 17, 20, 8, 19, 3, 8, 13, 4, 25, 18, 0, 11, 20, 4, 12, 0, 19, 2, 7, 17, 20, 18, 18, 4, 2, 17, 4, 4, 25, 17, 0, 13, 6, 4, 3, 8, 13, 4, 18, 2, 17, 4, 0, 8, 2, 17, 4, 0, 19, 3, 14, 20, 25, 4, 4, 6, 0, 17, 3, 3, 8, 13, 0, 8, 18, 20, 4, 20, 17, 3, 8, 13, 0, 19, 19, 0, 2, 7, 4, 4, 19, 20, 3, 4, 20, 13, 8, 19, 4, 20, 19, 8, 11, 4, 18, 14, 20, 15, 4, 19, 20, 4, 20, 17, 6, 4, 13, 4, 4, 7, 20, 17, 11, 0, 5, 17, 8, 2, 18, 19, 4, 11, 4, 18, 3, 4, 12, 14, 13, 6, 0, 17, 4, 18, 17, 0, 19, 4, 17, 11, 20, 13, 4, 18, 6, 4, 13, 4, 25, 6, 4, 13, 4, 18, 2, 14, 20, 19, 0, 21, 8, 21, 4, 18, 19, 0, 15, 4, 25, 5, 8, 2, 7, 4, 21, 8, 17, 4, 4, 15, 4, 17, 19, 4, 19, 0, 15, 4, 4, 21, 8, 17, 4, 25, 2, 7, 4, 17, 8, 19, 14, 17, 19, 18, 19, 0, 15, 4, 18, 0, 13, 6, 11, 4, 19, 0, 15, 0, 8, 17, 0, 24, 14, 13, 6, 4, 13, 0, 19, 4, 23, 8, 6, 4, 1, 11, 14, 13, 3, 21, 8, 17, 4, 18, 5, 8, 2, 7, 0, 0, 3, 12, 8, 18, 12, 14, 16, 20, 4, 21, 8, 3, 4, 17, 18, 20, 2, 17, 4, 11, 8, 13, 6, 4, 11, 20, 4, 20, 17, 11, 20, 19, 19, 4, 21, 8, 17, 0, 19, 21, 8, 17, 0, 8, 1, 0, 18, 4, 18, 18, 0, 11, 20, 0, 11, 0, 8, 19, 18, 21, 0, 6, 20, 4, 15, 4, 8, 13, 18, 2, 7, 20, 19, 4, 12, 14, 12, 4, 18, 12, 14, 16, 20, 0, 15, 14, 17, 19, 18, 4, 13, 5, 20, 8, 5, 20, 8, 19, 4, 1, 17, 8, 18, 0, 11, 20, 13, 3, 8, 19, 0, 23, 8, 18, 17, 14, 12, 15, 20, 0, 6, 8, 19, 4, 14, 1, 4, 8, 17, 3, 4, 12, 8, 4, 15, 8, 16, 20, 0, 0, 21, 0, 11, 4, 15, 0, 11, 4, 18, 20, 18, 0, 6, 4, 7, 4, 11, 0, 18, 15, 4, 13, 3, 20, 17, 14, 13, 3, 4, 7, 20, 8, 11, 4, 12, 4, 19, 17, 14, 17, 0, 13, 6, 18, 0, 3, 12, 4, 19, 18, 20, 1, 8, 17, 15, 11, 20, 12, 4, 11, 0, 15, 8, 13, 19, 0, 1, 0, 2, 13, 20, 16, 20, 4, 1, 17, 4, 21, 4, 21, 14, 8, 11, 4, 2, 7, 0, 13, 19, 1, 17, 0, 21, 4, 2, 4, 13, 18, 4, 2, 4, 3, 4, 17, 1, 17, 20, 13, 4, 12, 4, 19, 0, 11, 18, 14, 20, 17, 3, 18, 4, 23, 4, 18, 0, 3, 12, 8, 19, 1, 4, 19, 4, 18, 15, 4, 18, 4, 17, 25, 14, 13, 4, 18, 19, 4, 23, 19, 4, 17, 4, 2, 8, 19, 15, 8, 4, 6, 4, 0, 6, 8, 19, 0, 16, 20, 0, 8, 18, 13, 14, 12, 12, 0, 3, 8, 6, 13, 4, 12, 14, 17, 3, 20, 18, 4, 20, 8, 11, 0, 21, 0, 11, 0, 13, 4, 17, 5, 18, 15, 14, 20, 11, 4, 12, 0, 11, 8, 13, 18, 14, 17, 19, 18, 11, 8, 4, 13, 18, 17, 4, 20, 13, 8, 11, 4, 13, 19, 4, 6, 0, 5, 5, 4, 0, 2, 2, 4, 18, 21, 8, 3, 4, 4, 17, 14, 13, 3, 18, 17, 0, 21, 8, 17, 17, 0, 19, 4, 4, 17, 0, 19, 4, 25, 14, 1, 4, 8, 18, 21, 8, 3, 4, 25, 6, 0, 13, 19, 18, 14, 1, 4, 8, 19, 17, 0, 19, 4, 18, 13, 14, 1, 11, 4, 12, 8, 3, 8, 18, 17, 0, 19, 0, 8, 2, 14, 20, 3, 4, 12, 4, 18, 18, 4, 17, 0, 21, 8, 19, 21, 8, 3, 0, 8, 15, 4, 13, 3, 4, 15, 4, 13, 3, 18, 12, 14, 17, 3, 18, 17, 4, 5, 8, 19, 21, 8, 3, 0, 18, 1, 17, 4, 5, 18, 14, 2, 4, 0, 13, 11, 14, 20, 15, 18, 3, 17, 0, 12, 4, 5, 14, 13, 2, 4, 21, 4, 17, 18, 4, 11, 14, 20, 4, 17, 3, 4, 15, 8, 19, 0, 12, 8, 4, 18, 19, 0, 18, 18, 4, 17, 4, 5, 8, 18, 15, 14, 4, 19, 4, 3, 4, 2, 14, 17, 17, 14, 12, 15, 19, 15, 4, 13, 19, 4, 21, 4, 17, 18, 0, 14, 17, 0, 6, 4, 17, 14, 20, 4, 18, 2, 11, 20, 1, 18, 2, 0, 3, 17, 4, 1, 0, 13, 2, 18, 15, 11, 0, 19, 4, 2, 20, 8, 17, 18, 0, 21, 0, 13, 19, 20, 13, 8, 14, 13, 17, 14, 12, 15, 18, 6, 14, 20, 19, 4, 2, 14, 13, 13, 4, 4, 2, 0, 17, 19, 1, 14, 18, 18, 4, 0, 2, 8, 4, 17, 17, 14, 12, 15, 4, 15, 4, 18, 4, 25, 4, 2, 7, 4, 2, 9, 4, 20, 3, 8, 2, 17, 20, 4, 11, 15, 4, 18, 4, 18, 1, 17, 20, 13, 18, 1, 0, 6, 20, 4, 4, 6, 0, 11, 4, 15, 4, 18, 4, 4, 13, 20, 11, 11, 4, 18, 8, 13, 6, 4, 18, 20, 17, 6, 8, 17, 4, 12, 20, 4, 15, 4, 18, 0, 19, 15, 4, 18, 0, 8, 5, 8, 11, 4, 19, 11, 4, 13, 19, 18, 12, 14, 17, 3, 4, 21, 4, 17, 19, 20, 18, 0, 8, 13, 19, 15, 14, 20, 2, 4, 7, 8, 15, 15, 14, 1, 14, 19, 19, 4, 19, 14, 19, 0, 11, 7, 0, 8, 17, 0, 0, 1, 17, 8, 18, 2, 7, 8, 4, 18, 7, 0, 8, 4, 18, 14, 1, 4, 8, 4, 17, 4, 12, 20, 0, 18, 15, 14, 17, 19, 3, 0, 19, 4, 18, 2, 7, 8, 4, 25, 21, 8, 11, 11, 0, 2, 7, 8, 4, 4, 0, 20, 1, 4, 18, 15, 14, 4, 12, 4, 17, 0, 18, 4, 17, 13, 14, 19, 4, 17, 3, 8, 17, 4, 18, 17, 4, 8, 13, 18, 5, 4, 18, 18, 4, 18, 20, 1, 8, 19, 12, 14, 3, 4, 18, 11, 8, 4, 4, 18, 19, 8, 4, 3, 4, 2, 11, 4, 5, 18, 1, 14, 18, 18, 0, 21, 4, 19, 20, 4, 4, 2, 17, 0, 13, 1, 17, 20, 12, 4, 11, 8, 0, 8, 19, 18, 20, 1, 8, 18, 9, 14, 20, 8, 17, 17, 4, 4, 11, 18, 15, 11, 0, 19, 18, 15, 14, 12, 15, 4, 1, 0, 17, 17, 4, 2, 4, 3, 4, 25, 13, 14, 19, 4, 25, 0, 21, 17, 8, 11, 12, 14, 2, 7, 4, 9, 14, 8, 13, 19, 6, 0, 2, 7, 4, 2, 4, 3, 0, 8, 5, 0, 2, 7, 4, 21, 0, 8, 13, 4, 5, 11, 0, 13, 2, 2, 4, 3, 4, 18, 2, 4, 3, 4, 4, 2, 4, 3, 0, 19, 6, 17, 0, 8, 13, 18, 20, 1, 8, 4, 18, 0, 6, 4, 18, 14, 5, 5, 17, 4, 15, 17, 8, 21, 4, 9, 20, 8, 21, 4, 11, 0, 8, 13, 4, 19, 4, 18, 19, 18, 11, 8, 4, 13, 19, 15, 20, 13, 8, 17, 13, 0, 6, 4, 17, 6, 14, 20, 19, 0, 15, 0, 17, 2, 18, 11, 8, 0, 8, 18, 21, 4, 19, 20, 18, 4, 6, 0, 20, 23, 11, 8, 4, 17, 0, 11, 8, 14, 13, 18, 12, 0, 8, 17, 4, 10, 8, 11, 14, 18, 1, 0, 19, 14, 13, 5, 20, 19, 20, 17, 1, 0, 17, 14, 13, 19, 0, 20, 11, 4, 15, 20, 8, 19, 18, 9, 14, 8, 13, 18, 3, 4, 12, 8, 18, 2, 0, 13, 13, 4, 17, 20, 8, 13, 4, 15, 17, 14, 8, 4, 12, 4, 5, 8, 4, 21, 0, 8, 13, 18, 2, 8, 1, 11, 4, 12, 0, 6, 8, 4, 11, 14, 20, 4, 4, 21, 4, 8, 13, 4, 5, 4, 19, 4, 17, 9, 20, 15, 4, 18, 16, 20, 0, 13, 19, 21, 4, 13, 19, 4, 15, 11, 8, 4, 17, 11, 14, 20, 4, 25, 2, 0, 13, 0, 11, 11, 14, 20, 21, 4, 13, 4, 19, 19, 4, 17, 14, 24, 0, 11, 21, 14, 4, 20, 23, 9, 20, 8, 5, 18, 14, 13, 6, 11, 4, 17, 0, 8, 3, 4, 18, 4, 8, 25, 4, 11, 14, 20, 4, 18, 5, 11, 14, 19, 18, 2, 14, 13, 6, 4, 11, 14, 20, 0, 8, 12, 0, 17, 3, 8, 17, 0, 18, 4, 4, 14, 15, 4, 17, 0, 15, 0, 20, 18, 4, 13, 14, 19, 0, 8, 19, 0, 11, 14, 13, 0, 18, 8, 11, 4, 1, 4, 13, 8, 18, 4, 19, 0, 11, 4, 19, 20, 24, 0, 20, 13, 14, 19, 4, 4, 21, 4, 19, 8, 17, 0, 15, 15, 20, 8, 17, 0, 18, 4, 18, 11, 20, 19, 19, 0, 12, 14, 19, 8, 5, 21, 8, 18, 4, 17, 0, 20, 19, 14, 18, 5, 14, 13, 2, 0, 1, 4, 13, 8, 4, 4, 2, 17, 8, 0, 17, 0, 2, 4, 18, 2, 14, 3, 4, 18, 21, 14, 12, 8, 17, 7, 0, 1, 8, 19, 3, 4, 20, 8, 11, 4, 18, 18, 0, 8, 15, 11, 14, 12, 1, 3, 4, 6, 17, 4, 13, 4, 21, 4, 20, 1, 14, 13, 19, 4, 14, 20, 1, 11, 8, 4, 19, 0, 11, 0, 1, 4, 13, 8, 17, 17, 0, 18, 4, 25, 15, 8, 18, 18, 4, 12, 14, 8, 13, 4, 21, 14, 24, 14, 20, 21, 8, 18, 4, 25, 17, 0, 18, 0, 8, 1, 20, 19, 4, 17, 13, 14, 24, 4, 4, 13, 0, 13, 0, 18, 17, 4, 5, 20, 18, 21, 4, 19, 4, 25, 17, 4, 6, 13, 4, 6, 20, 8, 3, 4, 21, 4, 19, 8, 19, 3, 8, 21, 8, 13, 21, 4, 19, 8, 18, 4, 13, 2, 17, 4, 19, 0, 17, 3, 4, 2, 14, 6, 13, 4, 2, 14, 19, 14, 13, 17, 4, 6, 13, 0, 21, 8, 14, 11, 4, 15, 0, 13, 13, 4, 21, 4, 11, 14, 18, 15, 17, 14, 5, 18, 15, 11, 8, 4, 4, 1, 4, 13, 8, 19, 13, 14, 24, 4, 18, 5, 0, 2, 7, 0, 11, 0, 18, 18, 4, 1, 8, 1, 11, 4, 15, 14, 17, 2, 18, 15, 8, 11, 4, 18, 1, 11, 14, 2, 18, 12, 14, 17, 0, 11, 1, 14, 20, 4, 18, 8, 13, 3, 4, 23, 15, 4, 17, 2, 4, 5, 17, 0, 13, 2, 15, 11, 8, 4, 18, 21, 4, 13, 6, 4, 2, 0, 6, 4, 18, 12, 20, 4, 19, 18, 6, 0, 2, 7, 0, 12, 4, 2, 7, 4, 18, 14, 8, 5, 18, 19, 17, 14, 13, 2, 3, 0, 11, 11, 4, 15, 17, 8, 21, 0, 22, 0, 6, 14, 13, 4, 15, 4, 4, 18, 9, 14, 20, 8, 19, 18, 0, 2, 17, 4, 21, 8, 18, 4, 18, 17, 8, 21, 4, 18, 18, 0, 21, 14, 13, 4, 2, 7, 14, 18, 13, 14, 8, 4, 18, 12, 14, 11, 11, 4, 19, 0, 17, 3, 0, 17, 4, 0, 6, 8, 13, 14, 24, 4, 25, 4, 19, 0, 15, 4, 21, 8, 18, 4, 4, 15, 8, 18, 18, 0, 15, 11, 8, 4, 25, 21, 8, 18, 0, 8, 11, 0, 12, 4, 18, 9, 14, 20, 8, 18, 15, 20, 13, 8, 19, 9, 14, 20, 4, 19, 2, 14, 15, 8, 4, 13, 14, 2, 4, 18, 6, 0, 8, 4, 18, 0, 17, 12, 4, 4, 5, 14, 13, 3, 20, 15, 11, 8, 0, 8, 2, 11, 14, 20, 18, 15, 11, 8, 0, 19, 5, 8, 2, 7, 20, 7, 0, 19, 4, 18, 15, 4, 19, 4, 17, 2, 8, 21, 8, 11, 18, 14, 8, 4, 18, 11, 8, 18, 18, 4, 15, 11, 0, 8, 4, 8, 12, 8, 19, 4, 2, 7, 14, 20, 23, 14, 19, 0, 8, 19, 2, 14, 6, 13, 0, 15, 0, 20, 12, 4, 18, 19, 0, 17, 18, 18, 0, 20, 2, 4, 17, 0, 6, 4, 18, 20, 18, 0, 8, 19, 3, 4, 2, 20, 4, 2, 7, 0, 17, 18, 6, 4, 12, 8, 19, 0, 17, 12, 4, 17, 8, 3, 4, 0, 11, 14, 15, 4, 17, 4, 14, 19, 0, 13, 19, 2, 14, 13, 2, 20, 11, 0, 8, 3, 4, 15, 7, 0, 17, 4, 13, 4, 0, 13, 19, 20, 18, 4, 13, 19, 0, 17, 12, 4, 25, 20, 18, 4, 4, 18, 21, 8, 17, 20, 18, 21, 8, 14, 11, 0, 18, 4, 2, 7, 0, 1, 0, 17, 17, 0, 2, 20, 8, 17, 4, 15, 8, 15, 4, 18, 15, 0, 17, 8, 18, 4, 23, 2, 4, 18, 12, 0, 17, 4, 4, 15, 20, 0, 8, 19, 8, 12, 8, 19, 0, 14, 19, 0, 8, 18, 11, 8, 17, 4, 18, 14, 19, 4, 13, 19, 5, 14, 13, 3, 4, 14, 19, 4, 17, 0, 20, 18, 0, 8, 18, 15, 20, 4, 13, 19, 14, 19, 4, 4, 18, 14, 19, 8, 4, 25, 20, 18, 14, 13, 18, 15, 4, 17, 2, 0, 14, 19, 14, 13, 18, 20, 18, 4, 17, 0, 5, 8, 13, 0, 11, 14, 20, 19, 8, 11, 18, 8, 19, 20, 4, 4, 11, 0, 13, 18, 18, 0, 8, 13, 4, 0, 17, 12, 0, 8, 0, 17, 12, 0, 19, 3, 4, 2, 20, 18, 11, 20, 8, 17, 4, 6, 0, 17, 2, 4, 5, 14, 13, 3, 18, 20, 13, 8, 17, 0, 4, 2, 17, 8, 4, 18, 8, 4, 20, 17, 11, 14, 6, 4, 17, 0, 12, 4, 17, 4, 19, 14, 17, 3, 20, 19, 7, 4, 12, 4, 13, 14, 4, 20, 3, 15, 8, 6, 4, 17, 18, 19, 0, 3, 4, 7, 14, 2, 7, 0, 13, 0, 6, 4, 0, 1, 0, 19, 8, 17, 13, 0, 6, 4, 25, 15, 0, 19, 4, 18, 6, 4, 12, 8, 17, 21, 14, 11, 4, 19, 18, 20, 2, 4, 17, 18, 19, 24, 11, 14, 18, 4, 12, 4, 17, 15, 8, 6, 4, 25, 3, 4, 19, 19, 4, 2, 8, 19, 4, 17, 12, 0, 17, 6, 4, 17, 14, 20, 6, 8, 15, 0, 17, 4, 17, 3, 8, 21, 0, 13, 3, 4, 2, 20, 19, 2, 17, 4, 19, 4, 15, 20, 0, 8, 18, 0, 17, 0, 1, 4, 5, 14, 18, 18, 4, 25, 4, 17, 14, 18, 19, 17, 0, 2, 0, 6, 0, 17, 4, 17, 7, 14, 19, 4, 18, 15, 20, 4, 17, 0, 11, 20, 23, 4, 18, 21, 14, 12, 8, 19, 15, 20, 2, 4, 18, 15, 4, 17, 2, 20, 1, 20, 19, 4, 4, 18, 4, 11, 11, 4, 1, 20, 19, 4, 25, 1, 20, 19, 4, 18, 0, 6, 4, 4, 18, 5, 4, 19, 4, 25, 15, 0, 17, 4, 18, 21, 0, 11, 4, 19, 21, 0, 8, 13, 2, 15, 0, 17, 14, 8, 5, 17, 8, 6, 14, 15, 0, 17, 4, 4, 11, 14, 2, 0, 11, 1, 20, 19, 0, 8, 5, 8, 13, 8, 4, 6, 20, 8, 18, 4, 2, 0, 13, 4, 18, 8, 21, 17, 4, 18, 5, 4, 19, 4, 4, 17, 20, 1, 0, 13, 3, 4, 11, 0, 8, 6, 20, 8, 3, 0, 11, 20, 8, 18, 4, 11, 20, 8, 17, 0, 6, 0, 17, 4, 4, 6, 4, 0, 13, 19, 4, 12, 4, 20, 19, 5, 0, 19, 0, 11, 5, 14, 8, 17, 4, 4, 19, 8, 17, 4, 19, 14, 17, 3, 18, 0, 11, 1, 20, 12, 19, 20, 1, 4, 18, 17, 8, 3, 4, 18, 5, 8, 11, 12, 4, 15, 4, 3, 4, 18, 5, 14, 13, 3, 0, 19, 17, 14, 13, 4, 0, 11, 11, 4, 17, 15, 0, 17, 4, 25, 18, 19, 14, 15, 18, 18, 0, 8, 13, 18, 5, 14, 20, 4, 19, 0, 8, 6, 20, 4, 19, 17, 8, 1, 20, 13, 0, 15, 15, 4, 12, 14, 19, 14, 18, 1, 0, 13, 0, 11, 19, 14, 17, 3, 4, 5, 8, 13, 8, 18, 13, 8, 0, 8, 19, 21, 0, 18, 4, 18, 4, 19, 8, 17, 0, 21, 14, 3, 10, 0, 1, 20, 18, 19, 4, 15, 13, 4, 20, 18, 14, 19, 0, 6, 4, 15, 0, 17, 0, 8, 13, 8, 4, 13, 19, 11, 0, 8, 3, 18, 15, 4, 18, 19, 4, 17, 0, 12, 15, 4, 2, 8, 4, 20, 23, 21, 14, 12, 8, 4, 21, 14, 20, 19, 4, 5, 14, 20, 17, 18, 12, 0, 9, 14, 17, 13, 8, 0, 13, 19, 7, 14, 2, 7, 4, 18, 4, 12, 4, 4, 2, 7, 4, 13, 4, 12, 0, 17, 17, 0, 15, 4, 19, 4, 18, 18, 0, 15, 8, 13, 14, 13, 3, 4, 18, 1, 0, 11, 0, 8, 6, 17, 4, 2, 18, 18, 8, 19, 20, 0, 21, 14, 19, 4, 17, 21, 8, 3, 4, 14, 13, 8, 14, 13, 18, 16, 20, 4, 19, 4, 15, 4, 19, 4, 4, 21, 14, 8, 17, 4, 13, 8, 4, 17, 0, 6, 4, 17, 4, 17, 17, 14, 13, 6, 4, 18, 4, 12, 4, 18, 3, 4, 5, 8, 19, 6, 0, 12, 8, 13, 15, 4, 19, 4, 25, 6, 0, 17, 4, 25, 6, 4, 12, 8, 18, 6, 4, 11, 4, 4, 15, 14, 4, 11, 4, 0, 13, 8, 12, 4, 11, 14, 6, 4, 4, 4, 12, 20, 4, 18, 15, 8, 25, 25, 0, 2, 17, 4, 20, 23, 17, 14, 2, 7, 4, 17, 0, 8, 11, 18, 4, 17, 17, 4, 17, 2, 8, 19, 4, 25, 11, 14, 6, 4, 25, 4, 13, 6, 8, 13, 18, 0, 11, 8, 17, 11, 14, 6, 4, 18, 0, 1, 8, 12, 4, 0, 6, 0, 2, 4, 6, 4, 12, 8, 4, 0, 21, 4, 20, 23, 15, 4, 17, 11, 4, 0, 12, 4, 17, 18, 15, 4, 11, 11, 4, 2, 8, 19, 4, 4, 15, 0, 17, 19, 8, 18, 4, 12, 4, 25, 6, 4, 11, 4, 17, 3, 4, 15, 14, 19, 2, 20, 8, 19, 18, 0, 21, 8, 18, 4, 2, 8, 19, 4, 18, 18, 8, 19, 14, 19, 2, 8, 19, 0, 8, 18, 4, 12, 0, 19, 1, 14, 13, 3, 8, 11, 14, 6, 4, 0, 8, 13, 5, 14, 18, 5, 14, 8, 4, 18, 4, 13, 21, 8, 0, 1, 0, 19, 8, 19, 17, 20, 3, 4, 18, 11, 14, 24, 4, 17, 3, 4, 5, 8, 18, 2, 8, 19, 0, 19, 19, 4, 12, 15, 4, 3, 14, 20, 4, 4, 0, 20, 19, 4, 11, 2, 11, 14, 18, 4, 18, 4, 0, 20, 23, 8, 18, 14, 11, 4, 7, 0, 2, 7, 4, 12, 0, 19, 4, 17, 1, 14, 17, 3, 4, 15, 8, 15, 4, 17, 2, 14, 13, 19, 4, 5, 8, 11, 12, 0, 13, 14, 20, 4, 17, 3, 4, 1, 0, 19, 1, 4, 19, 14, 13, 12, 0, 13, 8, 4, 14, 20, 17, 18, 4, 18, 0, 1, 17, 4, 5, 8, 6, 4, 4, 17, 14, 2, 10, 18, 2, 11, 14, 17, 4, 2, 7, 0, 14, 18, 18, 20, 2, 4, 18, 0, 2, 7, 0, 19, 21, 8, 6, 13, 4, 17, 14, 1, 14, 19, 2, 20, 8, 17, 0, 2, 20, 8, 18, 4, 0, 8, 6, 20, 18, 18, 0, 2, 17, 0, 18, 20, 2, 4, 25, 18, 0, 14, 20, 11, 4, 6, 0, 17, 4, 12, 4, 13, 20, 18, 15, 14, 20, 11, 18, 18, 20, 2, 4, 4, 0, 13, 8, 12, 0, 5, 4, 13, 3, 20, 6, 4, 11, 4, 18, 0, 21, 8, 18, 0, 5, 8, 6, 4, 18, 21, 14, 19, 4, 25, 12, 0, 12, 8, 4, 15, 7, 0, 18, 4, 12, 14, 13, 19, 18, 11, 8, 19, 17, 4, 0, 1, 20, 18, 4, 13, 8, 4, 2, 4, 12, 8, 2, 17, 14, 5, 8, 6, 4, 17, 6, 4, 11, 4, 25, 1, 8, 9, 14, 20, 5, 8, 6, 4, 0, 6, 4, 11, 0, 19, 19, 0, 11, 20, 18, 14, 17, 13, 4, 4, 19, 0, 2, 7, 0, 21, 8, 2, 4, 18, 16, 20, 0, 18, 8, 6, 8, 11, 4, 19, 12, 0, 11, 11, 4, 19, 8, 6, 17, 4, 2, 4, 17, 5, 18, 2, 14, 17, 13, 4, 4, 19, 0, 13, 6, 11, 4, 2, 7, 4, 2, 0, 1, 11, 4, 11, 14, 13, 6, 4, 21, 14, 19, 4, 4, 13, 14, 20, 4, 18, 0, 1, 1, 4, 18, 3, 4, 11, 8, 19, 11, 4, 2, 7, 0, 15, 14, 8, 17, 4, 17, 4, 11, 8, 4, 2, 11, 14, 17, 0, 2, 8, 17, 4, 4, 13, 0, 8, 21, 4, 3, 14, 18, 4, 18, 8, 18, 14, 11, 0, 15, 0, 2, 19, 4, 5, 11, 20, 19, 4, 1, 14, 17, 13, 4, 2, 20, 11, 19, 4, 1, 14, 17, 3, 0, 17, 20, 18, 4, 18, 13, 14, 20, 4, 4, 21, 0, 13, 19, 4, 4, 17, 17, 0, 8, 0, 1, 8, 12, 0, 21, 14, 19, 4, 18, 5, 0, 17, 2, 4, 0, 6, 0, 2, 0, 4, 17, 17, 4, 18, 4, 17, 17, 4, 25, 19, 7, 4, 18, 4, 18, 0, 11, 8, 18, 15, 4, 17, 8, 11, 14, 17, 13, 4, 18, 15, 8, 13, 2, 4, 7, 0, 11, 11, 18, 5, 8, 6, 4, 25, 2, 7, 8, 2, 18, 19, 14, 13, 13, 4, 17, 4, 2, 20, 11, 15, 0, 2, 7, 0, 5, 4, 13, 3, 18, 1, 14, 13, 3, 18, 14, 17, 13, 4, 17, 18, 0, 1, 14, 19, 1, 8, 19, 4, 18, 17, 4, 21, 8, 18, 18, 0, 11, 8, 4, 3, 0, 19, 4, 17, 15, 8, 13, 2, 0, 4, 2, 20, 12, 4, 3, 4, 15, 11, 20, 7, 0, 19, 4, 17, 5, 4, 13, 3, 4, 17, 4, 11, 8, 18, 12, 4, 13, 20, 4, 13, 20, 8, 17, 4, 19, 14, 0, 18, 19, 13, 14, 20, 0, 8, 13, 0, 21, 17, 4, 13, 14, 20, 4, 25, 5, 17, 4, 8, 13, 13, 14, 20, 0, 18, 2, 14, 11, 8, 18, 3, 14, 20, 4, 18, 12, 14, 17, 13, 4, 19, 17, 4, 21, 4, 1, 8, 11, 11, 4, 18, 0, 20, 19, 18, 17, 4, 11, 20, 19, 3, 0, 19, 4, 4, 18, 0, 11, 8, 19, 11, 4, 6, 0, 11, 17, 8, 4, 13, 18, 7, 0, 17, 4, 12, 3, 4, 2, 4, 18, 2, 11, 14, 20, 4, 2, 4, 17, 13, 4, 21, 8, 1, 17, 4, 5, 17, 14, 11, 4, 21, 0, 13, 19, 0, 14, 17, 13, 4, 25, 0, 1, 20, 18, 0, 6, 11, 0, 2, 0, 14, 17, 13, 0, 19, 12, 20, 17, 4, 18, 17, 8, 19, 4, 18, 7, 8, 18, 18, 4, 1, 20, 11, 11, 4, 21, 4, 23, 4, 17, 1, 8, 18, 14, 20, 3, 0, 19, 4, 25, 12, 0, 19, 4, 25, 6, 8, 5, 11, 4, 17, 4, 11, 8, 19, 2, 14, 20, 18, 20, 0, 11, 8, 1, 8, 5, 4, 13, 19, 4, 12, 0, 17, 8, 13, 3, 14, 20, 4, 17, 4, 11, 8, 19, 4, 13, 0, 8, 5, 18, 4, 6, 0, 17, 0, 15, 4, 2, 7, 4, 2, 8, 17, 4, 17, 3, 4, 5, 8, 4, 19, 0, 19, 4, 17, 11, 0, 1, 14, 18, 17, 4, 11, 20, 18, 12, 8, 4, 11, 18, 2, 20, 11, 14, 19, 5, 4, 8, 13, 19, 7, 8, 18, 18, 0, 17, 14, 3, 4, 17, 1, 14, 20, 17, 6, 17, 4, 21, 8, 19, 17, 20, 8, 13, 0, 2, 17, 0, 1, 4, 12, 0, 19, 4, 18, 11, 0, 18, 18, 0, 4, 15, 0, 21, 4, 12, 0, 19, 4, 4, 17, 4, 11, 20, 4, 2, 17, 0, 8, 4, 2, 20, 8, 19, 4, 1, 8, 2, 7, 4, 4, 21, 0, 3, 4, 5, 17, 14, 11, 0, 7, 0, 13, 19, 4, 2, 14, 16, 20, 4, 6, 0, 11, 14, 15, 20, 13, 8, 4, 18, 17, 0, 12, 15, 0, 0, 21, 8, 3, 4, 15, 0, 15, 4, 18, 0, 8, 6, 11, 4, 21, 8, 21, 17, 4, 6, 4, 17, 4, 25, 0, 2, 19, 8, 5, 6, 4, 17, 4, 4, 21, 14, 20, 4, 4, 4, 21, 8, 4, 17, 7, 0, 11, 19, 4, 17, 4, 21, 4, 19, 11, 14, 6, 8, 18, 1, 4, 17, 4, 19, 21, 8, 19, 0, 11, 7, 0, 19, 0, 8, 5, 11, 14, 20, 4, 21, 4, 20, 21, 4, 6, 4, 17, 4, 18, 6, 0, 6, 4, 18, 7, 0, 19, 4, 25, 21, 4, 23, 4, 4, 12, 4, 6, 14, 19, 1, 0, 13, 3, 0, 17, 4, 15, 8, 19, 6, 0, 19, 4, 17, 1, 0, 25, 0, 17, 1, 17, 8, 13, 18, 15, 8, 6, 4, 18, 15, 4, 17, 8, 17, 21, 8, 1, 17, 0, 2, 14, 20, 3, 18, 5, 17, 4, 12, 8, 7, 0, 19, 4, 4, 4, 11, 8, 18, 4, 1, 4, 17, 6, 4, 7, 0, 19, 0, 19, 2, 14, 20, 18, 4, 17, 0, 21, 8, 13, 12, 0, 20, 21, 4, 15, 4, 2, 7, 0, 21, 4, 0, 20, 23, 11, 14, 20, 15, 4, 0, 1, 14, 17, 3, 2, 11, 0, 13, 18, 1, 0, 21, 4, 17, 5, 4, 8, 13, 18, 19, 4, 17, 13, 4, 6, 17, 0, 21, 0, 15, 14, 10, 4, 17, 1, 11, 4, 12, 4, 4, 11, 8, 17, 4, 18, 11, 8, 15, 18, 2, 4, 17, 13, 0, 12, 0, 5, 8, 0, 0, 8, 13, 4, 4, 21, 14, 20, 4, 17, 3, 20, 13, 4, 18, 2, 11, 14, 20, 0, 21, 0, 11, 18, 4, 5, 14, 17, 6, 4, 1, 0, 2, 7, 4, 12, 14, 8, 19, 4, 12, 0, 19, 7, 18, 12, 0, 17, 10, 18, 21, 4, 23, 4, 18, 11, 14, 24, 0, 11, 21, 14, 20, 4, 18, 6, 0, 19, 4, 4, 6, 11, 14, 1, 4, 6, 8, 17, 11, 18, 18, 14, 11, 3, 4, 9, 4, 19, 14, 13, 21, 4, 23, 4, 25, 5, 11, 14, 20, 18, 13, 0, 19, 0, 11, 4, 12, 4, 19, 18, 11, 4, 21, 4, 17, 12, 24, 19, 7, 4, 6, 17, 0, 3, 4, 21, 4, 23, 0, 8, 18, 8, 17, 14, 15, 2, 11, 14, 15, 4, 2, 8, 17, 4, 18, 5, 14, 8, 13, 18, 6, 0, 13, 6, 18, 1, 4, 17, 2, 4, 19, 4, 18, 19, 4, 4, 12, 8, 18, 4, 14, 20, 4, 18, 19, 7, 24, 12, 13, 4, 21, 8, 14, 11, 18, 1, 11, 20, 4, 18, 15, 11, 0, 13, 4, 2, 8, 17, 4, 25, 7, 0, 13, 19, 0, 2, 17, 4, 15, 4, 13, 20, 8, 17, 0, 2, 11, 8, 13, 18, 6, 0, 19, 4, 18, 0, 11, 11, 4, 25, 8, 3, 14, 11, 4, 13, 20, 8, 18, 4, 8, 13, 14, 20, 8, 17, 7, 20, 12, 4, 15, 8, 15, 8, 18, 12, 0, 11, 4, 18, 4, 21, 0, 3, 0, 17, 14, 3, 4, 18, 6, 14, 12, 12, 4, 4, 15, 8, 4, 17, 2, 7, 14, 15, 4, 8, 12, 15, 14, 19, 3, 4, 5, 8, 0, 19, 0, 19, 4, 25, 17, 14, 3, 0, 8, 17, 14, 3, 4, 4, 2, 0, 13, 14, 13, 6, 0, 19, 4, 25, 21, 14, 20, 0, 8, 17, 14, 3, 4, 25, 19, 0, 19, 0, 8, 15, 20, 0, 13, 19, 18, 8, 19, 4, 18, 15, 20, 11, 11, 18, 2, 7, 0, 11, 4, 12, 20, 11, 4, 18, 14, 18, 8, 4, 17, 3, 4, 6, 0, 19, 17, 20, 0, 8, 19, 17, 20, 0, 13, 19, 19, 0, 19, 4, 18, 2, 0, 18, 4, 18, 17, 20, 4, 13, 19, 15, 14, 11, 8, 4, 5, 11, 0, 18, 7, 6, 8, 5, 11, 0, 1, 8, 11, 0, 13, 6, 0, 19, 0, 19, 3, 4, 13, 18, 4, 2, 0, 11, 4, 17, 3, 8, 2, 19, 4, 1, 17, 0, 21, 14, 0, 5, 5, 20, 19, 4, 6, 14, 20, 19, 13, 14, 24, 0, 20, 1, 14, 24, 0, 20, 15, 8, 4, 20, 23, 15, 14, 11, 8, 18, 2, 24, 6, 13, 4, 0, 20, 17, 0, 18, 15, 11, 0, 13, 0, 19, 4, 19, 20, 4, 4, 15, 8, 13, 4, 19, 18, 0, 17, 18, 2, 0, 15, 19, 4, 7, 4, 11, 11, 14, 2, 0, 11, 4, 25, 17, 4, 13, 8, 4, 15, 0, 17, 2, 8, 6, 4, 17, 1, 4, 17, 20, 0, 8, 18, 9, 20, 17, 24, 18, 5, 8, 0, 13, 19, 11, 0, 2, 4, 19, 2, 0, 13, 14, 19, 17, 20, 4, 4, 18, 12, 4, 11, 14, 13, 0, 1, 14, 8, 4, 17, 20, 14, 13, 18, 19, 17, 8, 15, 4, 5, 17, 4, 11, 4, 17, 4, 3, 8, 18, 0, 8, 13, 4, 18, 15, 20, 17, 4, 4, 19, 4, 18, 19, 0, 5, 8, 0, 8, 19, 2, 24, 2, 11, 4, 19, 24, 17, 0, 13, 20, 18, 20, 17, 4, 2, 0, 11, 4, 4, 17, 0, 12, 4, 18, 5, 8, 0, 8, 18, 2, 17, 0, 13, 18, 5, 8, 14, 13, 18, 5, 8, 4, 13, 19, 1, 20, 19, 8, 13, 11, 0, 19, 8, 13, 5, 8, 4, 17, 0, 1, 20, 2, 7, 4, 1, 17, 14, 3, 4, 20, 17, 8, 13, 4, 15, 8, 15, 0, 8, 17, 0, 8, 3, 8, 18, 19, 4, 0, 10, 15, 14, 6, 13, 4, 1, 4, 17, 2, 0, 13, 0, 21, 17, 0, 17, 0, 3, 0, 17, 15, 11, 4, 20, 17, 1, 8, 3, 14, 13, 18, 7, 14, 17, 19, 12, 14, 20, 11, 4, 9, 4, 0, 13, 18, 6, 0, 11, 14, 13, 17, 4, 18, 19, 14, 17, 0, 11, 4, 17, 21, 8, 17, 8, 11, 2, 0, 11, 4, 18, 3, 8, 13, 3, 4, 15, 4, 17, 8, 19, 15, 4, 18, 14, 18, 2, 0, 12, 15, 4, 12, 0, 13, 8, 0, 17, 0, 24, 4, 17, 7, 14, 18, 19, 14, 1, 0, 18, 4, 4, 18, 19, 14, 2, 10, 14, 20, 19, 17, 4, 19, 0, 18, 18, 0, 17, 14, 12, 0, 13, 14, 21, 0, 11, 4, 1, 17, 8, 3, 4, 11, 0, -1, -1, -1, 4, 19, -1, -1, -1, 11, 4, -1, -1, -1, 13, 4, -1, -1, -1, 0, 8, -1, -1, -1, 0, 18, -1, -1, -1, 4, 20, -1, -1, -1, 3, 20, -1, -1, -1, 18, 4, -1, -1, -1, 0, 20, -1, -1, -1, 21, 0, -1, -1, -1, 4, 18, -1, -1, -1, 2, 4, -1, -1, -1, 18, 0, -1, -1, -1, 19, 4, -1, -1, -1, 15, 20, -1, -1, -1, 12, 0, -1, -1, -1, 14, 20, -1, -1, -1, 21, 20, -1, -1, -1, 18, 20, -1, -1, -1, 18, 8, -1, -1, -1, 19, 0, -1, -1, -1, 13, 8, -1, -1, -1, 0, 13, -1, -1, -1, 0, 7, -1, -1, -1, 4, 7, -1, -1, -1, 4, 13, -1, -1, -1, 11, 20, -1, -1, -1, 1, 20, -1, -1, -1, 7, 4, -1, -1, -1, 14, 10, -1, -1, -1, 19, 20, -1, -1, -1, 13, 20, -1, -1, -1, 20, 13, -1, -1, -1, 14, 18, -1, -1, -1, 19, 14, -1, -1, -1, 8, 13, -1, -1, -1, 2, 0, -1, -1, -1, 24, 20, -1, -1, -1, 17, 4, -1, -1, -1, 7, 14, -1, -1, -1, 16, 20, -1, -1, -1, 3, 4, -1, -1, -1, 3, 14, -1, -1, -1, 6, 14, -1, -1, -1, 24, 0, -1, -1, -1, 12, 8, -1, -1, -1, 2, 8, -1, -1, -1, 1, 24, -1, -1, -1, 2, 12, -1, -1, -1, 14, 17, -1, -1, -1, 20, 18, -1, -1, -1, 5, 8, -1, -1, -1, 7, 8, -1, -1, -1, 12, 20, -1, -1, -1, 8, 5, -1, -1, -1, 17, 0, -1, -1, -1, 5, 0, -1, -1, -1, 9, 4, -1, -1, -1, 11, 8, -1, -1, -1, 14, 13, -1, -1, -1, 7, 0, -1, -1, -1, 3, 0, -1, -1, -1, 12, 4, -1, -1, -1, 1, 4, -1, -1, -1, 15, 8, -1, -1, -1, 1, 8, -1, -1, -1, 20, 19, -1, -1, -1, 9, 0, -1, -1, -1, 6, 8, -1, -1, -1, 6, 24, -1, -1, -1, 17, 8, -1, -1, -1, 17, 20, -1, -1, -1, 3, 2, -1, -1, -1, 15, 7, -1, -1, -1, 8, 11, -1, -1, -1, 3, 12, -1, -1, -1, 10, 0, -1, -1, -1, 14, 1, -1, -1, -1, 15, 2, -1, -1, -1, 2, 14, -1, -1, -1, 10, 14, -1, -1, -1, 12, 11, -1, -1, -1, 5, 24, -1, -1, -1, 0, 0, -1, -1, -1, 14, 7, -1, -1, -1, 13, 0, -1, -1, -1, 10, 12, -1, -1, -1, 12, 12, -1, -1, -1, 12, 13, -1, -1, -1, 15, 0, -1, -1, -1, -1, -1, -1, -1, -1, -1, -1, -1, -1, -1, -1, -1, -1, -1, -1, -1, -1, -1, -1, -1, -1, -1, -1, -1, -1, -1, -1, -1, -1, -1, -1, -1, -1, -1, -1, -1, -1, -1, -1, -1, -1, -1, -1, -1, -1, -1, -1, -1, -1, -1, -1, -1, -1, -1, -1, -1, -1, -1, -1, -1, -1, -1, -1, -1, -1, -1, -1, -1, -1, -1, -1, -1, -1, -1, -1, -1, -1, -1, -1, -1, -1, -1, -1, -1, -1, -1, -1, -1, -1, -1, -1, -1, -1, -1, -1, -1, -1, -1, -1, -1, -1, -1, -1, -1, -1, -1, -1, -1, -1, -1, -1, -1, -1, -1, -1, -1, -1, -1, -1, -1, -1, -1, -1, -1, -1, -1, -1, -1, -1, -1, -1, -1, -1, -1, -1, -1, -1, -1, -1, -1, -1, -1, -1, -1, -1, -1, -1, -1, -1, -1, -1, -1, -1, -1, -1, -1, -1, -1, -1, -1, -1, -1, -1, -1, -1, -1, -1, -1, -1, -1, -1, -1, -1, -1, -1, -1, -1, -1, -1, -1, -1, -1, -1, -1, -1, -1, -1, -1, -1, -1, -1, -1, -1, -1, -1, -1, -1, -1, -1, -1, -1, -1, -1, -1, -1, -1, -1, -1, -1, -1, -1, -1, -1, -1, -1, -1, -1, -1, -1, -1, -1, -1, -1, -1, -1, -1, -1, -1, -1, -1, -1, -1, -1, -1, -1, -1, -1, -1, -1, -1, -1, -1, -1, -1, -1, -1, -1, -1, -1, -1, -1, -1, -1, -1, -1, -1, -1, -1, -1, -1, -1, -1, -1, -1, -1, -1, -1, -1, -1, -1, -1, -1, -1, -1, -1, -1, -1, -1, -1, -1, -1, -1, -1, -1, -1, -1, -1, -1, -1, -1, -1, -1, -1, -1, -1, -1, -1, -1, -1, -1, -1, -1, -1, -1, -1, -1, -1, -1, -1, -1, -1, -1, -1, -1, -1, -1, -1, -1, -1, -1, -1, -1, -1, -1, -1, -1, -1, -1, -1, -1, -1, -1, -1, -1, -1, -1, -1, -1, -1, -1, -1, -1, -1, -1, -1, -1, -1, -1, -1, -1, -1, -1, -1, -1, -1, -1, -1, -1, -1, -1, -1, -1, -1, -1, -1, -1, -1, -1, -1, -1, -1, -1, -1, -1, -1, -1, -1, -1, -1, -1, -1, -1, -1, -1, -1, -1, -1, -1, -1, -1, -1, -1, -1, -1, -1, -1, -1, -1, -1, -1, -1, -1, -1, -1, -1, -1, -1, -1, -1, -1, -1, -1, -1, -1, -1, -1, -1, -1, -1, -1, -1, -1, -1, -1, -1, -1, -1, -1, -1, -1, -1, -1, -1, -1, -1, -1, -1, -1, -1, -1, -1, -1, -1, -1, -1, -1, -1, -1, -1, -1, -1, -1, -1, -1, -1, -1, -1, -1, -1, -1, -1, -1, -1, -1, -1, -1, -1, -1, -1, -1, -1, -1, -1, -1, -1, -1, -1, -1, -1, -1, -1, -1, -1, -1, -1, -1, -1, -1, -1, -1, -1, -1, -1, -1, -1, -1, -1, -1, -1, -1, -1, -1, -1, -1, -1, -1, -1, -1, -1, -1, -1, -1, -1, -1, -1, -1, -1, -1, -1, -1, -1, -1, -1, -1, -1, -1, -1, -1, -1, -1, -1, -1, -1, -1, -1, -1, -1, -1, -1, -1, -1, -1, -1, -1, -1, -1, -1, -1, -1, -1, -1, -1, -1, -1, -1, -1, -1, -1, -1, -1, -1, -1, -1, -1, -1, -1, -1, -1, -1, -1, -1, -1, -1, -1, -1, -1, -1, -1, -1, -1, -1, -1, -1, -1, -1, -1, -1, -1, -1, -1, -1, -1, -1, -1, -1, -1, -1, -1, -1, -1, -1, -1, -1, -1, -1, -1, -1, -1, -1, -1, -1, -1, -1, -1, -1, -1, -1, -1, -1, -1, -1, -1, -1, -1, -1, -1, -1, -1, -1, -1, -1, -1, -1, -1, -1, -1, -1, -1, -1, -1, -1, -1, -1, -1, -1, -1, -1, -1, -1, -1, -1, -1, -1, -1, -1, -1, -1, -1, -1, -1, -1, -1, -1, -1, -1, -1, -1, -1, -1, -1, -1, -1, -1, -1, -1, -1, -1, -1, -1, -1, -1, -1, -1, -1, -1, -1, -1, -1, -1, -1, -1, -1, -1, -1, -1, -1, -1, -1, -1, -1, -1, -1, -1, -1, -1, -1, -1, -1, -1, -1, -1, -1, -1, -1, -1, -1, -1, -1, -1, -1, -1, -1, -1, -1, -1, -1, -1, -1, -1, -1, -1, -1, -1, -1, -1, -1, -1, -1, -1, -1, -1, -1, -1, -1, -1, -1, -1, -1, -1, -1, -1, -1, -1, -1, -1, -1, -1, -1, -1, -1, -1, -1, -1, -1, -1, -1, -1, -1, -1, -1, -1, -1, -1, -1, -1, -1, -1, -1, -1, -1, -1, -1, -1, -1, -1, -1, -1, -1, -1, -1, -1, -1, -1, -1, -1, -1, -1, -1, -1, -1, -1, -1, -1, -1, -1, -1, -1, -1, -1, -1, -1, -1, -1, -1, -1, -1, -1, -1, -1, -1, -1, -1, -1, -1, -1, -1, -1, -1, -1, -1, -1, -1, -1, -1, -1, -1, -1, -1, -1, -1, -1, -1, -1, -1, -1, -1, -1, -1, -1, -1, -1, -1, -1, -1, -1, -1, -1, -1, -1, -1, -1, -1, -1, -1, -1, -1, -1, -1, -1, -1, -1, -1, -1, -1, -1, -1, -1, -1, -1, -1, -1, -1, -1, -1, -1, -1, -1, -1, -1, -1, -1, -1, -1, -1, -1, -1, -1, -1, -1, -1, -1, -1, -1, -1, -1, -1, -1, -1, -1, -1, -1, -1, -1, -1, -1, -1, -1, -1, -1, -1, -1, -1, -1, -1, -1, -1, -1, -1, -1, -1, -1, -1, -1, -1, -1, -1, -1, -1, -1, -1, -1, -1, -1, -1, -1, -1, -1, -1, -1, -1, -1, -1, -1, -1, -1, -1, -1, -1, -1, -1, -1, -1, -1, -1, -1, -1, -1, -1, -1, -1, -1, -1, -1, -1, -1, -1, -1, -1, -1, -1, -1, -1, -1, -1, -1, -1, -1, -1, -1, -1, -1, -1, -1, -1, -1, -1, -1, -1, -1, -1, -1, -1, -1, -1, -1, -1, -1, -1, -1, -1, -1, -1, -1, -1, -1, -1, -1, -1, -1, -1, -1, -1, -1, -1, -1, -1, -1, -1, -1, -1, -1, -1, -1, -1, -1, -1, -1, -1, -1, -1, -1, -1, -1, -1, -1, -1, -1, -1, -1, -1, -1, -1, -1, -1, -1, -1, -1, -1, -1, -1, -1, -1, -1, -1, -1, -1, -1, -1, -1, -1, -1, -1, -1, -1, -1, -1, -1, -1, -1, -1, -1, -1, -1, -1, -1, -1, -1, -1, -1, -1, -1, -1, -1, -1, -1, -1, -1, -1, -1, -1, -1, -1, -1, -1, -1, -1, -1, -1, -1, -1, -1, -1, -1, -1, -1, -1, -1, -1, -1, -1, -1, -1, -1, -1, -1, -1, -1, -1, -1, -1, -1, -1, -1, -1, -1, -1, -1, -1, -1, -1, -1, -1, -1, -1, -1, -1, -1, -1, -1, -1, -1, -1, -1, -1, -1, -1, -1, -1, -1, -1, -1, -1, -1, -1, -1, -1, -1, -1, -1, -1, -1, -1, -1, -1, -1, -1, -1, -1, -1, -1, -1, -1, -1, -1, -1, -1, -1, -1, -1, -1, -1, -1, -1, -1, -1, -1, -1, -1, -1, -1, -1, -1, -1, -1, -1, -1, -1, -1, -1, -1, -1, -1, -1, -1, -1, -1, -1, -1, -1, -1, -1, -1, -1, -1, -1, -1, -1, -1, -1, -1, -1, -1, -1, -1, -1, -1, -1, -1, -1, -1, -1, -1, -1, -1, -1, -1, -1, -1, -1, -1, -1, -1, -1, -1, -1, -1, -1, -1, -1, -1, -1, -1, -1, -1, -1, -1, -1, -1, -1, -1, -1, -1, -1, -1, -1, -1, -1, -1, -1, -1, -1, -1, -1, -1, -1, -1, -1, -1, -1, -1, -1, -1, -1, -1, -1, -1, -1, -1, -1, -1, -1, -1, -1, -1, -1, -1, -1, -1, -1, -1, -1, -1, -1, -1, -1, -1, -1, -1, -1, -1, -1, -1, -1, -1, -1, -1, -1, -1, -1, -1, -1, -1, -1, -1, -1, -1, -1, -1, -1, -1, -1, -1, -1, -1, -1, -1, -1, -1, -1, -1, -1, -1, -1, -1, -1, -1, -1, -1, -1, -1, -1, -1, -1, -1, -1, -1, -1, -1, -1, -1, -1, -1, -1, -1, -1, -1, -1, -1, -1, -1, -1, -1, -1, -1, -1, -1, -1, -1, -1, -1, -1, -1, -1, -1, -1, -1, -1, -1, -1, -1, -1, -1, -1, -1, -1, -1, -1, -1, -1, -1, -1, -1, -1, -1, -1, -1, -1, -1, -1, -1, -1, -1, -1, -1, -1, -1, -1, -1, -1, -1, -1, -1, -1, -1, -1, -1, -1, -1, -1, -1, -1, -1, -1, -1, -1, -1, -1, -1, -1, -1, -1, -1, -1, -1, -1, -1, -1, -1, -1, -1, -1, -1, -1, -1, -1, -1, -1, -1, -1, -1, -1, -1, -1, -1, -1, -1, -1, -1, -1, -1, -1, -1, -1, -1, -1, -1, -1, -1, -1, -1, -1, -1, -1, -1, -1, -1, -1, -1, -1, -1, -1, -1, -1, -1, -1, -1, -1, -1, -1, -1, -1, -1, -1, -1, -1, -1, -1, -1, -1, -1, -1, -1, -1, -1, -1, -1, -1, -1, -1, -1, -1, -1, -1, -1, -1, -1, -1, -1, -1, -1, -1, -1, -1, -1, -1, -1, -1, -1, -1, -1, -1, -1, -1, -1, -1, -1, -1, -1, -1, -1, -1, -1, -1, -1, -1, -1, -1, -1, -1, -1, -1, -1, -1, -1, -1, -1, -1, -1, -1, -1, -1, -1, -1, -1, -1, -1, -1, -1, -1, -1, -1, -1, -1, -1, -1, -1, -1, -1, -1, -1, -1, -1, -1, -1, -1, -1, -1, -1, -1, -1, -1, -1, -1, -1, -1, -1, -1, -1, -1, -1, -1, -1, -1, -1, -1, -1, -1, -1, -1, -1, -1, -1, -1, -1, -1, -1, -1, -1, -1, -1, -1, -1, -1, -1, -1, -1, -1, -1, -1, -1, -1, -1, -1, -1, -1, -1, -1, -1, -1, -1, -1, -1, -1, -1, -1, -1, -1, -1, -1, -1, -1, -1, -1, -1, -1, -1, -1, -1, -1, -1, -1, -1, -1, -1, -1, -1, -1, -1, -1, -1, -1, -1, -1, -1, -1, -1, -1, -1, -1, -1, -1, -1, -1, -1, -1, -1, -1, -1, -1, -1, -1, -1, -1, -1, -1, -1, -1, -1, -1, -1, -1, -1, -1, -1, -1, -1, -1, -1, -1, -1, -1, -1, -1, -1, -1, -1, -1, -1, -1, -1, -1, -1, -1, -1, -1, -1, -1, -1, -1, -1, -1, -1, -1, -1, -1, -1, -1, -1, -1, -1, -1, -1, -1, -1, -1, -1, -1, -1, -1, -1, -1, -1, -1, -1, -1, -1, -1, -1, -1, -1, -1, -1, -1, -1, -1, -1, -1, -1, -1, -1, -1, -1, -1, -1, -1, -1, -1, -1, -1, -1, -1, -1, -1, -1, -1, -1, -1, -1, -1, -1, -1, -1, -1, -1, -1, -1, -1, -1, -1, -1, -1, -1, -1, -1, -1, -1, -1, -1, -1, -1, -1, -1, -1, -1, -1, -1, -1, -1, -1, -1, -1, -1, -1, -1, -1, -1, -1, -1, -1, -1, -1, -1, -1, -1, -1, -1, -1, -1, -1, -1, -1, -1, -1, -1, -1, -1, -1, -1, -1, -1, -1, -1, -1, -1, -1, -1, -1, -1, -1, -1, -1, -1, -1, -1, -1, -1, -1, -1, -1, -1, -1, -1, -1, -1, -1, -1, -1, -1, -1, -1, -1, -1, -1, -1, -1, -1, -1, -1, -1, -1, -1, -1, -1, -1, -1, -1, -1, -1, -1, -1, -1, -1, -1, -1, -1, -1, -1, -1, -1, -1, -1, -1, -1, -1, -1, -1, -1, -1, -1, -1, -1, -1, -1, -1, -1, -1, -1, -1, -1, -1, -1, -1, -1, -1, -1, -1, -1, -1, -1, -1, -1, -1, -1, -1, -1, -1, -1, -1, -1, -1, -1, -1, -1, -1, -1, -1, -1, -1, -1, -1, -1, -1, -1, -1, -1, -1, -1, -1, -1, -1, -1, -1, -1, -1, -1, -1, -1, -1, -1, -1, -1, -1, -1, -1, -1, -1, -1, -1, -1, -1, -1, -1, -1, -1, -1, -1, -1, -1, -1, -1, -1, -1, -1, -1, -1, -1, -1, -1, -1, -1, -1, -1, -1, -1, -1, -1, -1, -1, -1, -1, -1, -1, -1, -1, -1, -1, -1, -1, -1, -1, -1, -1, -1, -1, -1, -1, -1, -1, -1, -1, -1, -1, -1, -1, -1, -1, -1, -1, -1, -1, -1, -1, -1, -1, -1, -1, -1, -1, -1, -1, -1, -1, -1, -1, -1, -1, -1, -1, -1, -1, -1, -1, -1, -1, -1, -1, -1, -1, -1, -1, -1, -1, -1, -1, -1, -1, -1, -1, -1, -1, -1, -1, -1, -1, -1, -1, -1, -1, -1, -1, -1, -1, -1, -1, -1, -1, -1, -1, -1, -1, -1, -1, -1, -1, -1, -1, -1, -1, -1, -1, -1, -1, -1, -1, -1, -1, -1, -1, -1, -1, -1, -1, -1, -1, -1, -1, -1, -1, -1, -1, -1, -1, -1, -1, -1, -1, -1, -1, -1, -1, -1, -1, -1, -1, -1, -1, -1, -1, -1, -1, -1, -1, -1, -1, -1, -1, -1, -1, -1, -1, -1, -1, -1, -1, -1, -1, -1, -1, -1, -1, -1, -1, -1, -1, -1, -1, -1, -1, -1, -1, -1, -1, -1, -1, -1, -1, -1, -1, -1, -1, -1, -1, -1, -1, -1, -1, -1, -1, -1, -1, -1, -1, -1, -1, -1, -1, -1, -1, -1, -1, -1, -1, -1, -1, -1, -1, -1, -1, -1, -1, -1, -1, -1, -1, -1, -1, -1, -1, -1, -1, -1, -1, -1, -1, -1, -1, -1, -1, -1, -1, -1, -1, -1, -1, -1, -1, -1, -1, -1, -1, -1, -1, -1, -1, -1, -1, -1, -1, -1, -1, -1, -1, -1, -1, -1, -1, -1, -1, -1, -1, -1, -1, -1, -1, -1, -1, -1, -1, -1, -1, -1, -1, -1, -1, -1, -1, -1, -1, -1, -1, -1, -1, -1, -1, -1, -1, -1, -1, -1, -1, -1, -1, -1, -1, -1, -1, -1, -1, -1, -1, -1, -1, -1, -1, -1, -1, -1, -1, -1, -1, -1, -1, -1, -1, -1, -1, -1, -1, -1, -1, -1, -1, -1, -1, -1, -1, -1, -1, -1, -1, -1, -1, -1, -1, -1, -1, -1, -1, -1, -1, -1, -1, -1, -1, -1, -1, -1, -1, -1, -1, -1, -1, -1, -1, -1, -1, -1, -1, -1, -1, -1, -1, -1, -1, -1, -1, -1, -1, -1, -1, -1, -1, -1, -1, -1, -1, -1, -1, -1, -1, -1, -1, -1, -1, -1, -1, -1, -1, -1, -1, -1, -1, -1, -1, -1, -1, -1, -1, -1, -1, -1, -1, -1, -1, -1, -1, -1, -1, -1, -1, -1, -1, -1, -1, -1, -1, -1, -1, -1, -1, -1, -1, -1, -1, -1, -1, -1, -1, -1, -1, -1, -1, -1, -1, -1, -1, -1, -1, -1, -1, -1, -1, -1, -1, -1, -1, -1, -1, -1, -1, -1, -1, -1, -1, -1, -1, -1, -1, -1, -1, -1, -1, -1, -1, -1, -1, -1, -1, -1, -1, -1, -1, -1, -1, -1, -1, -1, -1, -1, -1, -1, -1, -1, -1, -1, -1, -1, -1, -1, -1, -1, -1, -1, -1, -1, -1, -1, -1, -1, -1, -1, -1, -1, -1, -1, -1, -1, -1, -1, -1, -1, -1, -1, -1, -1, -1, -1, -1, -1, -1, -1, -1, -1, -1, -1, -1, -1, -1, -1, -1, -1, -1, -1, -1, -1, -1, -1, -1, -1, -1, -1, -1, -1, -1, -1, -1, -1, -1, -1, -1, -1, -1, -1, -1, -1, -1, -1, -1, -1, -1, -1, -1, -1, -1, -1, -1, -1, -1, -1, -1, -1, -1, -1, -1, -1, -1, -1, -1, -1, -1, -1, -1, -1, -1, -1, -1, -1, -1, -1, -1, -1, -1, -1, -1, -1, -1, -1, -1, -1, -1, -1, -1, -1, -1, -1, -1, -1, -1, -1, -1, -1, -1, -1, -1, -1, -1, -1, -1, -1, -1, -1, -1, -1, -1, -1, -1, -1, -1, -1, -1, -1, -1, -1, -1, -1, -1, -1, -1, -1, -1, -1, -1, -1, -1, -1, -1, -1, -1, -1, -1, -1, -1, -1, -1, -1, -1, -1, -1, -1, -1, -1, -1, -1, -1, -1, -1, -1, -1, -1, -1, -1, -1, -1, -1, -1, -1, -1, -1, -1, -1, -1, -1, -1, -1, -1, -1, -1, -1, -1, -1, -1, -1, -1, -1, -1, -1, -1, -1, -1, -1, -1, -1, -1, -1, -1, -1, -1, -1, -1, -1, -1, -1, -1, -1, -1, -1, -1, -1, -1, -1, -1, -1, -1, -1, -1, -1, -1, -1, -1, -1, -1, -1, -1, -1, -1, -1, -1, -1, -1, -1, -1, -1, -1, -1, -1, -1, -1, -1, -1, -1, -1, -1, -1, -1, -1, -1, -1, -1, -1, -1, -1, -1, -1, -1, -1, -1, -1, -1, -1, -1, -1, -1, -1, -1, -1, -1, -1, -1, -1, -1, -1, -1, -1, -1, -1, -1, -1, -1, -1, -1, -1, -1, -1, -1, -1, -1, -1, -1, -1, -1, -1, -1, -1, -1, -1, -1, -1, -1, -1, -1, -1, -1, -1, -1, -1, -1, -1, -1, -1, -1, -1, -1, -1, -1, -1, -1, -1, -1, -1, -1, -1, -1, -1, -1, -1, -1, -1, -1, -1, -1, -1, -1, -1, -1, -1, -1, -1, -1, -1, -1, -1, -1, -1, -1, -1, -1, -1, -1, -1, -1, -1, -1, -1, -1, -1, -1, -1, -1, -1, -1, -1, -1, -1, -1, -1, -1, -1, -1, -1, -1, -1, -1, -1, -1, -1, -1, -1, -1, -1, -1, -1, -1, -1, -1, -1, -1, -1, -1, -1, -1, -1, -1, -1, -1, -1, -1, -1, -1, -1, -1, -1, -1, -1, -1, -1, -1, -1, -1, -1, -1, -1, -1, -1, -1, -1, -1, -1, -1, -1, -1, -1, -1, -1, -1, -1, -1, -1, -1, -1, -1, -1, -1, -1, -1, -1, -1, -1, -1, -1, -1, -1, -1, -1, -1, -1, -1, -1, -1, -1, -1, -1, -1, -1, -1, -1, -1, -1, -1, -1, -1, -1, -1, -1, -1, -1, -1, -1, -1, -1, -1, -1, -1, -1, -1, -1, -1, -1, -1, -1, -1, -1, -1, -1, -1, -1, -1, -1, -1, -1, -1, -1, -1, -1, -1, -1, -1, -1, -1, -1, -1, -1, -1, -1, -1, -1, -1, -1, -1, -1, -1, -1, -1, -1, -1, -1, -1, -1, -1, -1, -1, -1, -1, -1, -1, -1, -1, -1, -1, -1, -1, -1, -1, -1, -1, -1, -1, -1, -1, -1, -1, -1, -1, -1, -1, -1, -1, -1, -1, -1, -1, -1, -1, -1, -1, -1, -1, -1, -1, -1, -1, -1, -1, -1, -1, -1, -1, -1, -1, -1, -1, -1, -1, -1, -1, -1, -1, -1, -1, -1, -1, -1, -1, -1, -1, -1, -1, -1, -1, -1, -1, -1, -1, -1, -1, -1, -1, -1, -1, -1, -1, -1, -1, -1, -1, -1, -1, -1, -1, -1, -1, -1, -1, -1, -1, -1, -1, -1, -1, -1, -1, -1, -1, -1, -1, -1, -1, -1, -1, -1, -1, -1, -1, -1, -1, -1, -1, -1, -1, -1, -1, -1, -1, -1, -1, -1, -1, -1, -1, -1, -1, -1, -1, -1, -1, -1, -1, -1, -1, -1, -1, -1, -1, -1, -1, -1, -1, -1, -1, -1, -1, -1, -1, -1, -1, -1, -1, -1, -1, -1, -1, -1, -1, -1, -1, -1, -1, -1, -1, -1, -1, -1, -1, -1, -1, -1, -1, -1, -1, -1, -1, -1, -1, -1, -1, -1, -1, -1, -1, -1, -1, -1, -1, -1, -1, -1, -1, -1, -1, -1, -1, -1, -1, -1, -1, -1, -1, -1, -1, -1, -1, -1, -1, -1, -1, -1, -1, -1, -1, -1, -1, -1, -1, -1, -1, -1, -1, -1, -1, -1, -1, -1, -1, -1, -1, -1, -1, -1, -1, -1, -1, -1, -1, -1, -1, -1, -1, -1, -1, -1, -1, -1, -1, -1, -1, -1, -1, -1, -1, -1, -1, -1, -1, -1, -1, -1, -1, -1, -1, -1, -1, -1, -1, -1, -1, -1, -1, -1, -1, -1, -1, -1, -1, -1, -1, -1, -1, -1, -1, -1, -1, -1, -1, -1, -1, -1, -1, -1, -1, -1, -1, -1, -1, -1, -1, -1, -1, -1, -1, -1, -1, -1, -1, -1, -1, -1, -1, -1, -1, -1, -1, -1, -1, -1, -1, -1, -1, -1, -1, -1, -1, -1, -1, -1, -1, -1, -1, -1, -1, -1, -1, -1, -1, -1, -1, -1, -1, -1, -1, -1, -1, -1, -1, -1, -1, -1, -1, -1, -1, -1, -1, -1, -1, -1, -1, -1, -1, -1, -1, -1, -1, -1, -1, -1, -1, -1, -1, -1, -1, -1, -1, -1, -1, -1, -1, -1, -1, -1, -1, -1, -1, -1, -1, -1, -1, -1, -1, -1, -1, -1, -1, -1, -1, -1, -1, -1, -1, -1, -1, -1, -1, -1, -1, -1, -1, -1, -1, -1, -1, -1, -1, -1, -1, -1, -1, -1, -1, -1, -1, -1, -1, -1, -1, -1, -1, -1, -1, -1, -1, -1, -1, -1, -1, -1, -1, -1, -1, -1, -1, -1, -1, -1, -1, -1, -1, -1, -1, -1, -1, -1, -1, -1, -1, -1, -1, -1, -1, -1, -1, -1, -1, -1, -1, -1, -1, -1, -1, -1, -1, -1, -1, -1, -1, -1, -1, -1, -1, -1, -1, -1, -1, -1, -1, -1, -1, -1, -1, -1, -1, -1, -1, -1, -1, -1, -1, -1, -1, -1, -1, -1, -1, -1, -1, -1, -1, -1, -1, -1, -1, -1, -1, -1, -1, -1, -1, -1, -1, -1, -1, -1, -1, -1, -1, -1, -1, -1, -1, -1, -1, -1, -1, -1, -1, -1, -1, -1, -1, -1, -1, -1, -1, -1, -1, -1, -1, -1, -1, -1, -1, -1, -1, -1, -1, -1, -1, -1, -1, -1, -1, -1, -1, -1, -1, -1, -1, -1, -1, -1, -1, -1, -1, -1, -1, -1, -1, -1, -1, -1, -1, -1, -1, -1, -1, -1, -1, -1, -1, -1, -1, -1, -1, -1, -1, -1, -1, -1, -1, -1, -1, -1, -1, -1, -1, -1, -1, -1, -1, -1, -1, -1, -1, -1, -1, -1, -1, -1, -1, -1, -1, -1, -1, -1, -1, -1, -1, -1, -1, -1, -1, -1, -1, -1, -1, -1, -1, -1, -1, -1, -1, -1, -1, -1, -1, -1, -1, -1, -1, -1, -1, -1, -1, -1, -1, -1, -1, -1, -1, -1, -1, -1, -1, -1, -1, -1, -1, -1, -1, -1, -1, -1, -1, -1, -1, -1, -1, -1, -1, -1, -1, -1, -1, -1, -1, -1, -1, -1, -1, -1, -1, -1, -1, -1, -1, -1, -1, -1, -1, -1, -1, -1, -1, -1, -1, -1, -1, -1, -1, -1, -1, -1, -1, -1, -1, -1, -1, -1, -1, -1, -1, -1, -1, -1, -1, -1, -1, -1, -1, -1, -1, -1, -1, -1, -1, -1, -1, -1, -1, -1, -1, -1, -1, -1, -1, -1, -1, -1, -1, -1, -1, -1, -1, -1, -1, -1, -1, -1, -1, -1, -1, -1, -1, -1, -1, -1, -1, -1, -1, -1, -1, -1, -1, -1, -1, -1, -1, -1, -1, -1, -1, -1, -1, -1, -1, -1, -1, -1, -1, -1, -1, -1, -1, -1, -1, -1, -1, -1, -1, -1, -1, -1, -1, -1, -1, -1, -1, -1, -1, -1, -1, -1, -1, -1, -1, -1, -1, -1, -1, -1, -1, -1, -1, -1, -1, -1, -1, -1, -1, -1, -1, -1, -1, -1, -1, -1, -1, -1, -1, -1, -1, -1, -1, -1, -1, -1, -1, -1, -1, -1, -1, -1, -1, -1, -1, -1, -1, -1, -1, -1, -1, -1, -1, -1, -1, -1, -1, -1, -1, -1, -1, -1, -1, -1, -1, -1, -1, -1, -1, -1, -1, -1, -1, -1, -1, -1, -1, -1, -1, -1, -1, -1, -1, -1, -1, -1, -1, -1, -1, -1, -1, -1, -1, -1, -1, -1, -1, -1, -1, -1, -1, -1, -1, -1, -1, -1, -1, -1, -1, -1, -1, -1, -1, -1, -1, -1, -1, -1, -1, -1, -1, -1, -1, -1, -1, -1, -1, -1, -1, -1, -1, -1, -1, -1, -1, -1, -1, -1, -1, -1, -1, -1, -1, -1, -1, -1, -1, -1, -1, -1, -1, -1, -1, -1, -1, -1, -1, -1, -1, -1, -1, -1, -1, -1, -1, -1, -1, -1, -1, -1, -1, -1, -1, -1, -1, -1, -1, -1, -1, -1, -1, -1, -1, -1, -1, -1, -1, -1, -1, -1, -1, -1, -1, -1, -1, -1, -1, -1, -1, -1, -1, -1, -1, -1, -1, -1, -1, -1, -1, -1, -1, -1, -1, -1, -1, -1, -1, -1, -1, -1, -1, -1, -1, -1, -1, -1, -1, -1, -1, -1, -1, -1, -1, -1, -1, -1, -1, -1, -1, -1, -1, -1, -1, -1, -1, -1, -1, -1, -1, -1, -1, -1, -1, -1, -1, -1, -1, -1, -1, -1, -1, -1, -1, -1, -1, -1, -1, -1, -1, -1, -1, -1, -1, -1, -1, -1, -1, -1, -1, -1, -1, -1, -1, -1, -1, -1, -1, -1, -1, -1, -1, -1, -1, -1, -1, -1, -1, -1, -1, -1, -1, -1, -1, -1, -1, -1, -1, -1, -1, -1, -1, -1, -1, -1, -1, -1, -1, -1, -1, -1, -1, -1, -1, -1, -1, -1, -1, -1, -1, -1, -1, -1, -1, -1, -1, -1, -1, -1, -1, -1, -1, -1, -1, -1, -1, -1, -1, -1, -1, -1, -1, -1, -1, -1, -1, -1, -1, -1, -1, -1, -1, -1, -1, -1, -1, -1, -1, -1, -1, -1, -1, -1, -1, -1, -1, -1, -1, -1, -1, -1, -1, -1, -1, -1, -1, -1, -1, -1, -1, -1, -1, -1, -1, -1, -1, -1, -1, -1, -1, -1, -1, -1, -1, -1, -1, -1, -1, -1, -1, -1, -1, -1, -1, -1, -1, -1, -1, -1, -1, -1, -1, -1, -1, -1, -1, -1, -1, -1, -1, -1, -1, -1, -1, -1, -1, -1, -1, -1, -1, -1, -1, -1, -1, -1, -1, -1, -1, -1, -1, -1, -1, -1, -1, -1, -1, -1, -1, -1, -1, -1, -1, -1, -1, -1, -1, -1, -1, -1, -1, -1, -1, -1, -1, -1, -1, -1, -1, -1, -1, -1, -1, -1, -1, -1, -1, -1, -1, -1, -1, -1, -1, -1, -1, -1, -1, -1, -1, -1, -1, -1, -1, -1, -1, -1, -1, -1, -1, -1, -1, -1, -1, -1, -1, -1, -1, -1, -1, -1, -1, -1, -1, -1, -1, -1, -1, -1, -1, -1, -1, -1, -1, -1, -1, -1, -1, -1, -1, -1, -1, -1, -1, -1, -1, -1, -1, -1, -1, -1, -1, -1, -1, -1, -1, -1, -1, -1, -1, -1, -1, -1, -1, -1, -1, -1, -1, -1, -1, -1, -1, -1, -1, -1, -1, -1, -1, -1, -1, -1, -1, -1, -1, -1, -1, -1, -1, -1, -1, -1, -1, -1, -1, -1, -1, -1, -1, -1, -1, -1, -1, -1, -1, -1, -1, -1, -1, -1, -1, -1, -1, -1, -1, -1, -1, -1, -1, -1, -1, -1, -1, -1, -1, -1, -1, -1, -1, -1, -1, -1, -1, -1, -1, -1, -1, -1, -1, -1, -1, -1, -1, -1, -1, -1, -1, -1, -1, -1, -1, -1, -1, -1, -1, -1, -1, -1, -1, -1, -1, -1, -1, -1, -1, -1, -1, -1, -1, -1, -1, -1, -1, -1, -1, -1, -1, -1, -1, -1, -1, -1, -1, -1, -1, -1, -1, -1, -1, -1, -1, -1, -1, -1, -1, -1, -1, -1, -1, -1, -1, -1, -1, -1, -1, -1, -1, -1, -1, -1, -1, -1, -1, -1, -1, -1, -1, -1, -1, -1, -1, -1, -1, -1, -1, -1, -1, -1, -1, -1, -1, -1, -1, -1, -1, -1, -1, -1, -1, -1, -1, -1, -1, -1, -1, -1, -1, -1, -1, -1, -1, -1, -1, -1, -1, -1, -1, -1, -1, -1, -1, -1, -1, -1, -1, -1, -1, -1, -1, -1, -1, -1, -1, -1, -1, -1, -1, -1, -1, -1, -1, -1, -1, -1, -1, -1, -1, -1, -1, -1, -1, -1, -1, -1, -1, -1, -1, -1, -1, -1, -1, -1, -1, -1, -1, -1, -1, -1, -1, -1, -1, -1, -1, -1, -1, -1, -1, -1, -1, -1, -1, -1, -1, -1, -1, -1, -1, -1, -1, -1, -1, -1, -1, -1, -1, -1, -1, -1, -1, -1, -1, -1, -1, -1, -1, -1, -1, -1, -1, -1, -1, -1, -1, -1, -1, -1, -1, -1, -1, -1, -1, -1, -1, -1, -1, -1, -1, -1, -1, -1, -1, -1, -1, -1, -1, -1, -1, -1, -1, -1, -1, -1, -1, -1, -1, -1, -1, -1, -1, -1, -1, -1, -1, -1, -1, -1, -1, -1, -1, -1, -1, -1, -1, -1, -1, -1, -1, -1, -1, -1, -1, -1, -1, -1, -1, -1, -1, -1, -1, -1, -1, -1, -1, -1, -1, -1, -1, -1, -1, -1, -1, -1, -1, -1, -1, -1, -1, -1, -1, -1, -1, -1, -1, -1, -1, -1, -1, -1, -1, -1, -1, -1, -1, -1, -1, -1, -1, -1, -1, -1, -1, -1, -1, -1, -1, -1, -1, -1, -1, -1, -1, -1, -1, -1, -1, -1, -1, -1, -1, -1, -1, -1, -1, -1, -1, -1, -1, -1, -1, -1, -1, -1, -1, -1, -1, -1, -1, -1, -1, -1, -1, -1, -1, -1, -1, -1, -1, -1, -1, -1, -1, -1, -1, -1, -1, -1, -1, -1, -1, -1, -1, -1, -1, -1, -1, -1, -1, -1, -1, -1, -1, -1, -1, -1, -1, -1, -1, -1, -1, -1, -1, -1, -1, -1, -1, -1, -1, -1, -1, -1, -1, -1, -1, -1, -1, -1, -1, -1, -1, -1, -1, -1, -1, -1, -1, -1, -1, -1, -1, -1, -1, -1, -1, -1, -1, -1, -1, -1, -1, -1, -1, -1, -1, -1, -1, -1, -1, -1, -1, -1, -1, -1, -1, -1, -1, -1, -1, -1, -1, -1, -1, -1, -1, -1, -1, -1, -1, -1, -1, -1, -1, -1, -1, -1, -1, -1, -1, -1, -1, -1, -1, -1, -1, -1, -1, -1, -1, -1, -1, -1, -1, -1, -1, -1, -1, -1, -1, -1, -1, -1, -1, -1, -1, -1, -1, -1, -1, -1, -1, -1, -1, -1, -1, -1, -1, -1, -1, -1, -1, -1, -1, -1, -1, -1, -1, -1, -1, -1, -1, -1, -1, -1, -1, -1, -1, -1, -1, -1, -1, -1, -1, -1, -1, -1, -1, -1, -1, -1, -1, -1, -1, -1, -1, -1, -1, -1, -1, -1, -1, -1, -1, -1, -1, -1, -1, -1, -1, -1, -1, -1, -1, -1, -1, -1, -1, -1, -1, -1, -1, -1, -1, -1, -1, -1, -1, -1, -1, -1, -1, -1, -1, -1, -1, -1, -1, -1, -1, -1, -1, -1, -1, -1, -1, -1, -1, -1, -1, -1, -1, -1, -1, -1, -1, -1, -1, -1, -1, -1, -1, -1, -1, -1, -1, -1, -1, -1, -1, -1, -1, -1, -1, -1, -1, -1, -1, -1, -1, -1, -1, -1, -1, -1, -1, -1, -1, -1, -1, -1, -1, -1, -1, -1, -1, -1, -1, -1, -1, -1, -1, -1, -1, -1, -1, -1, -1, -1, -1, -1, -1, -1, -1, -1, -1, -1, -1, -1, -1, -1, -1, -1, -1, -1, -1, -1, -1, -1, -1, -1, -1, -1, -1, -1, -1, -1, -1, -1, -1, -1, -1, -1, -1, -1, -1, -1, -1, -1, -1, -1, -1, -1, -1, -1, -1, -1, -1, -1, -1, -1, -1, -1, -1, -1, -1, -1, -1, -1, -1, -1, -1, -1, -1, -1, -1, -1, -1, -1, -1, -1, -1, -1, -1, -1, -1, -1, -1, -1, -1, -1, -1, -1, -1, -1, -1, -1, -1, -1, -1, -1, -1, -1, -1, -1, -1, -1, -1, -1, -1, -1, -1, -1, -1, -1, -1, -1, -1, -1, -1, -1, -1, -1, -1, -1, -1, -1, -1, -1, -1, -1, -1, -1, -1, -1, -1, -1, -1, -1, -1, -1, -1, -1, -1, -1, -1, -1, -1, -1, -1, -1, -1, -1, -1, -1, -1, -1, -1, -1, -1, -1, -1, -1, -1, -1, -1, -1, -1, -1, -1, -1, -1, -1, -1, -1, -1, -1, -1, -1, -1, -1, -1, -1, -1, -1, -1, -1, -1, -1, -1, -1, -1, -1, -1, -1, -1, -1, -1, -1, -1, -1, -1, -1, -1, -1, -1, -1, -1, -1, -1, -1, -1, -1, -1, -1, -1, -1, -1, -1, -1, -1, -1, -1, -1, -1, -1, -1, -1, -1, -1, -1, -1, -1, -1, -1, -1, -1, -1, -1, -1, -1, -1, -1, -1, -1, -1, -1, -1, -1, -1, -1, -1, -1, -1, -1, -1, -1, -1, -1, -1, -1, -1, -1, -1, -1, -1, -1, -1, -1, -1, -1, -1, -1, -1, -1, -1, -1, -1, -1, -1, -1, -1, -1, -1, -1, -1, -1, -1, -1, -1, -1, -1, -1, -1, -1, -1, -1, -1, -1, -1, -1, -1, -1, -1, -1, -1, -1, -1, -1, -1, -1, -1, -1, -1, -1, -1, -1, -1, -1, -1, -1, -1, -1, -1, -1, -1, -1, -1, -1, -1, -1, -1, -1, -1, -1, -1, -1, -1, -1, -1, -1, -1, -1, -1, -1, -1, -1, -1, -1, -1, -1, -1, -1, -1, -1, -1, -1, -1, -1, -1, -1, -1, -1, -1, -1, -1, -1, -1, -1, -1, -1, -1, -1, -1, -1, -1, -1, -1, -1, -1, -1, -1, -1, -1, -1, -1, -1, -1, -1, -1, -1, -1, -1, -1, -1, -1, -1, -1, -1, -1, -1, -1, -1, -1, -1, -1, -1, -1, -1, -1, -1, -1, -1, -1, -1, -1, -1, -1, -1, -1, -1, -1, -1, -1, -1, -1, -1, -1, -1, -1, -1, -1, -1, -1, -1, -1, -1, -1, -1, -1, -1, -1, -1, -1, -1, -1, -1, -1, -1, -1, -1, -1, -1, -1, -1, -1, -1, -1, -1, -1, -1, -1, -1, -1, -1, -1, -1, -1, -1, -1, -1, -1, -1, -1, -1, -1, -1, -1, -1, -1, -1, -1, -1, -1, -1, -1, -1, -1, -1, -1, -1, -1, -1, -1, -1, -1, -1, -1, -1, -1, -1, -1, -1, -1, -1, -1, -1, -1, -1, -1, -1, -1, -1, -1, -1, -1, -1, -1, -1, -1, -1, -1, -1, -1, -1, -1, -1, -1, -1, -1, -1, -1, -1, -1, -1, -1, -1, -1, -1, -1, -1, -1, -1, -1, -1, -1, -1, -1, -1, -1, -1, -1, -1, -1, -1, -1, -1, -1, -1, -1, -1, -1, -1, -1, -1, -1, -1, -1, -1, -1, -1, -1, -1, -1, -1, -1, -1, -1, -1, -1, -1, -1, -1, -1, -1, -1, -1, -1, -1, -1, -1, -1, -1, -1, -1, -1, -1, -1, -1, -1, -1, -1, -1, -1, -1, -1, -1, -1, -1, -1, -1, -1, -1, -1, -1, -1, -1, -1, -1, -1, -1, -1, -1, -1, -1, -1, -1, -1, -1, -1, -1, -1, -1, -1, -1, -1, -1, -1, -1, -1, -1, -1, -1, -1, -1, -1, -1, -1, -1, -1, -1, -1, -1, -1, -1, -1, -1, -1, -1, -1, -1, -1, -1, -1, -1, -1, -1, -1, -1, -1, -1, -1, -1, -1, -1, -1, -1, -1, -1, -1, -1, -1, -1, -1, -1, -1, -1, -1, -1, -1, -1, -1, -1, -1, -1, -1, -1, -1, -1, -1, -1, -1, -1, -1, -1, -1, -1, -1, -1, -1, -1, -1, -1, -1, -1, -1, -1, -1, -1, -1, -1, -1, -1, -1, -1, -1, -1, -1, -1, -1, -1, -1, -1, -1, -1, -1, -1, -1, -1, -1, -1, -1, -1, -1, -1, -1, -1, -1, -1, -1, -1, -1, -1, -1, -1, -1, -1, -1, -1, -1, -1, -1, -1, -1, -1, -1, -1, -1, -1, -1, -1, -1, -1, -1, -1, -1, -1, -1, -1, -1, -1, -1, -1, -1, -1, -1, -1, -1, -1, -1, -1, -1, -1, -1, -1, -1, -1, -1, -1, -1, -1, -1, -1, -1, -1, -1, -1, -1, -1, -1, -1, -1, -1, -1, -1, -1, -1, -1, -1, -1, -1, -1, -1, -1, -1, -1, -1, -1, -1, -1, -1, -1, -1, -1, -1, -1, -1, -1, -1, -1, -1, -1, -1, -1, -1, -1, -1, -1, -1, -1, -1, -1, -1, -1, -1, -1, -1, -1, -1, -1, -1, -1, -1, -1, -1, -1, -1, -1, -1, -1, -1, -1, -1, -1, -1, -1, -1, -1, -1, -1, -1, -1, -1, -1, -1, -1, -1, -1, -1, -1, -1, -1, -1, -1, -1, -1, -1, -1, -1, -1, -1, -1, -1, -1, -1, -1, -1, -1, -1, -1, -1, -1, -1, -1, -1, -1, -1, -1, -1, -1, -1, -1, -1, -1, -1, -1, -1, -1, -1, -1, -1, -1, -1, -1, -1, -1, -1, -1, -1, -1, -1, -1, -1, -1, -1, -1, -1, -1, -1, -1, -1, -1, -1, -1, -1, -1, -1, -1, -1, -1, -1, -1, -1, -1, -1, -1, -1, -1, -1, -1, -1, -1, -1, -1, -1, -1, -1, -1, -1, -1, -1, -1, -1, -1, -1, -1, -1, -1, -1, -1, -1, -1, -1, -1, -1, -1, -1, -1, -1, -1, -1, -1, -1, -1, -1, -1, -1, -1, -1, -1, -1, -1, -1, -1, -1, -1, -1, -1, -1, -1, -1, -1, -1, -1, -1, -1, -1, -1, -1, -1, -1, -1, -1, -1, -1, -1, -1, -1, -1, -1, -1, -1, -1, -1, -1, -1, -1, -1, -1, -1, -1, -1, -1, -1, -1, -1, -1, -1, -1, -1, -1, -1, -1, -1, -1, -1, -1, -1, -1, -1, -1, -1, -1, -1, -1, -1, -1, -1, -1, -1, -1, -1, -1, -1, -1, -1, -1, -1, -1, -1, -1, -1, -1, -1, -1, -1, -1, -1, -1, -1, -1, -1, -1, -1, -1, -1, -1, -1, -1, -1, -1, -1, -1, -1, -1, -1, -1, -1, -1, -1, -1, -1, -1, -1, -1, -1, -1, -1, -1, -1, -1, -1, -1, -1, -1, -1, -1, -1, -1, -1, -1, -1, -1, -1, -1, -1, -1, -1, -1, -1, -1, -1, -1, -1, -1, -1, -1, -1, -1, -1, -1, -1, -1, -1, -1, -1, -1, -1, -1, -1, -1, -1, -1, -1, -1, -1, -1, -1, -1, -1, -1, -1, -1, -1, -1, -1, -1, -1, -1, -1, -1, -1, -1, -1, -1, -1, -1, -1, -1, -1, -1, -1, -1, -1, -1, -1, -1, -1, -1, -1, -1, -1, -1, -1, -1, -1, -1, -1, -1, -1, -1, -1, -1, -1, -1, -1, -1, -1, -1, -1, -1, -1, -1, -1, -1, -1, -1, -1, -1, -1, -1, -1, -1, -1, -1, -1, -1, -1, -1, -1, -1, -1, -1, -1, -1, -1, -1, -1, -1, -1, -1, -1, -1, -1, -1, -1, -1, -1, -1, -1, -1, -1, -1, -1, -1, -1, -1, -1, -1, -1, -1, -1, -1, -1, -1, -1, -1, -1, -1, -1, -1, -1, -1, -1, -1, -1, -1, -1, -1, -1, -1, -1, -1, -1, -1, -1, -1, -1, -1, -1, -1, -1, -1, -1, -1, -1, -1, -1, -1, -1, -1, -1, -1, -1, -1, -1, -1, -1, -1, -1, -1, -1, -1, -1, -1, -1, -1, -1, -1, -1, -1, -1, -1, -1, -1, -1, -1, -1, -1, -1, -1, -1, -1, -1, -1, -1, -1, -1, -1, -1, -1, -1, -1, -1, -1, -1, -1, -1, -1, -1, -1, -1, -1, -1, -1, -1, -1, -1, -1, -1, -1, -1, -1, -1, -1, -1, -1, -1, -1, -1, -1, -1, -1, -1, -1, -1, -1, -1, -1, -1, -1, -1, -1, -1, -1, -1, -1, -1, -1, -1, -1, -1, -1, -1, -1, -1, -1, -1, -1, -1, -1, -1, -1, -1, -1, -1, -1, -1, -1, -1, -1, -1, -1, -1, -1, -1, -1, -1, -1, -1, -1, -1, -1, -1, -1, -1, -1, -1, -1, -1, -1, -1, -1, -1, -1, -1, -1, -1, -1, -1, -1, -1, -1, -1, -1, -1, -1, -1, -1, -1, -1, -1, -1, -1, -1, -1, -1, -1, -1, -1, -1, -1, -1, -1, -1, -1, -1, -1, -1, -1, -1, -1, -1, -1, -1, -1, -1, -1, -1, -1, -1, -1, -1, -1, -1, -1, -1, -1, -1, -1, -1, -1, -1, -1, -1, -1, -1, -1, -1, -1, -1, -1, -1, -1, -1, -1, -1, -1, -1, -1, -1, -1, -1, -1, -1, -1, -1, -1, -1, -1, -1, -1, -1, -1, -1, -1, -1, -1, -1, -1, -1, -1, -1, -1, -1, -1, -1, -1, -1, -1, -1, -1, -1, -1, -1, -1, -1, -1, -1, -1, -1, -1, -1, -1, -1, -1, -1, -1, -1, -1, -1, -1, -1, -1, -1, -1, -1, -1, -1, -1, -1, -1, -1, -1, -1, -1, -1, -1, -1, -1, -1, -1, -1, -1, -1, -1, -1, -1, -1, -1, -1, -1, -1, -1, -1, -1, -1, -1, -1, -1, -1, -1, -1, -1, -1, -1, -1, -1, -1, -1, -1, -1, -1, -1, -1, -1, -1, -1, -1, -1, -1, -1, -1, -1, -1, -1, -1, -1, -1, -1, -1, -1, -1, -1, -1, -1, -1, -1, -1, -1, -1, -1, -1, -1, -1, -1, -1, -1, -1, -1, -1, -1, -1, -1, -1, -1, -1, -1, -1, -1, -1, -1, -1, -1, -1, -1, -1, -1, -1, -1, -1, -1, -1, -1, -1, -1, -1, -1, -1, -1, -1, -1, -1, -1, -1, -1, -1, -1, -1, -1, -1, -1, -1, -1, -1, -1, -1, -1, -1, -1, -1, -1, -1, -1, -1, -1, -1, -1, -1, -1, -1, -1, -1, -1, -1, -1, -1, -1, -1, -1, -1, -1, -1, -1, -1, -1, -1, -1, -1, -1, -1, -1, -1, -1, -1, -1, -1, -1, -1, -1, -1, -1, -1, -1, -1, -1, -1, -1, -1, -1, -1, -1, -1, -1, -1, -1, -1, -1, -1, -1, -1, -1, -1, -1, -1, -1, -1, -1, -1, -1, -1, -1, -1, -1, -1, -1, -1, -1, -1, -1, -1, -1, -1, -1, -1, -1, -1, -1, -1, -1, -1, -1, -1, -1, -1, -1, -1, -1, -1, -1, -1, -1, -1, -1, -1, -1, -1, -1, -1, -1, -1, -1, -1, -1, -1, -1, -1, -1, -1, -1, -1, -1, -1, -1, -1, -1, -1, -1, -1, -1, -1, -1, -1, -1, -1, -1, -1, -1, -1, -1, -1, -1, -1, -1, -1, -1, -1, -1, -1, -1, -1, -1, -1, -1, -1, -1, -1, -1, -1, -1, -1, -1, -1, -1, -1, -1, -1, -1, -1, -1, -1, -1, -1, -1, -1, -1, -1, -1, -1, -1, -1, -1, -1, -1, -1, -1, -1, -1, -1, -1, -1, -1, -1, -1, -1, -1, -1, -1, -1, -1, -1, -1, -1, -1, -1, -1, -1, -1, -1, -1, -1, -1, -1, -1, -1, -1, -1, -1, -1, -1, -1, -1, -1, -1, -1, -1, -1, -1, -1, -1, -1, -1, -1, -1, -1, -1, -1, -1, -1, -1, -1, -1, -1, -1, -1, -1, -1, -1, -1, -1, -1, -1, -1, -1, -1, -1, -1, -1, -1, -1, -1, -1, -1, -1, -1, -1, -1, -1, -1, -1, -1, -1, -1, -1, -1, -1, -1, -1, -1, -1, -1, -1, -1, -1, -1, -1, -1, -1, -1, -1, -1, -1, -1, -1, -1, -1, -1, -1, -1, -1, -1, -1, -1, -1, -1, -1, -1, -1, -1, -1, -1, -1, -1, -1, -1, -1, -1, -1, -1, -1, -1, -1, -1, -1, -1, -1, -1, -1, -1, -1, -1, -1, -1, -1, -1, -1, -1, -1, -1, -1, -1, -1, -1, -1, -1, -1, -1, -1, -1, -1, -1, -1, -1, -1, -1, -1, -1, -1, -1, -1, -1, -1, -1, -1, -1, -1, -1, -1, -1, -1, -1, -1, -1, -1, -1, -1, -1, -1, -1, -1, -1, -1, -1, -1, -1, -1, -1, -1, -1, -1, -1, -1, -1, -1, -1, -1, -1, -1, -1, -1, -1, -1, -1, -1, -1, -1, -1, -1, -1, -1, -1, -1, -1, -1, -1, -1, -1, -1, -1, -1, -1, -1, -1, -1, -1, -1, -1, -1, -1, -1, -1, -1, -1, -1, -1, -1, -1, -1, -1, -1, -1, -1, -1, -1, -1, -1, -1, -1, -1, -1, -1, -1, -1, -1, -1, -1, -1, -1, -1, -1, -1, -1, -1, -1, -1, -1, -1, -1, -1, -1, -1, -1, -1, -1, -1, -1, -1, -1, -1, -1, -1, -1, -1, -1, -1, -1, -1, -1, -1, -1, -1, -1, -1, -1, -1, -1, -1, -1, -1, -1, -1, -1, -1, -1, -1, -1, -1, -1, -1, -1, -1, -1, -1, -1, -1, -1, -1, -1, -1, -1, -1, -1, -1, -1, -1, -1, -1, -1, -1, -1, -1, -1, -1, -1, -1, -1, -1, -1, -1, -1, -1, -1, -1, -1, -1, -1, -1, -1, -1, -1, -1, -1, -1, -1, -1, -1, -1, -1, -1, -1, -1, -1, -1, -1, -1, -1, -1, -1, -1, -1, -1, -1, -1, -1, -1, -1, -1, -1, -1, -1, -1, -1, -1, -1, -1, -1, -1, -1, -1, -1, -1, -1, -1, -1, -1, -1, -1, -1, -1, -1, -1, -1, -1, -1, -1, -1, -1, -1, -1, -1, -1, -1, -1, -1, -1, -1, -1, -1, -1, -1, -1, -1, -1, -1, -1, -1, -1, -1, -1, -1, -1, -1, -1, -1, -1, -1, -1, -1, -1, -1, -1, -1, -1, -1, -1, -1, -1, -1, -1, -1, -1, -1, -1, -1, -1, -1, -1, -1, -1, -1, -1, -1, -1, -1, -1, -1, -1, -1, -1, -1, -1, -1, -1, -1, -1, -1, -1, -1, -1, -1, -1, -1, -1, -1, -1, -1, -1, -1, -1, -1, -1, -1, -1, -1, -1, -1, -1, -1, -1, -1, -1, -1, -1, -1, -1, -1, -1, -1, -1, -1, -1, -1, -1, -1, -1, -1, -1, -1, -1, -1, -1, -1, -1, -1, -1, -1, -1, -1, -1, -1, -1, -1, -1, -1, -1, -1, -1, -1, -1, -1, -1, -1, -1, -1, -1, -1, -1, -1, -1, -1, -1, -1, -1, -1, -1, -1, -1, -1, -1, -1, -1, -1, -1, -1, -1, -1, -1, -1, -1, -1, -1, -1, -1, -1, -1, -1, -1, -1, -1, -1, -1, -1, -1, -1, -1, -1, -1, -1, -1, -1, -1, -1, -1, -1, -1, -1, -1, -1, -1, -1, -1, -1, -1, -1, -1, -1, -1, -1, -1, -1, -1, -1, -1, -1, -1, -1, -1, -1, -1, -1, -1, -1, -1, -1, -1, -1, -1, -1, -1, -1, -1, -1, -1, -1, -1, -1, -1, -1, -1, -1, -1, -1, -1, -1, -1, -1, -1, -1, -1, -1, -1, -1, -1, -1, -1, -1, -1, -1, -1, -1, -1, -1, -1, -1, -1, -1, -1, -1, -1, -1, -1, -1, -1, -1, -1, -1, -1, -1, -1, -1, -1, -1, -1, -1, -1, -1, -1, -1, -1, -1, -1, -1, -1, -1, -1, -1, -1, -1, -1, -1, -1, -1, -1, -1, -1, -1, -1, -1, -1, -1, -1, -1, -1, -1, -1, -1, -1, -1, -1, -1, -1, -1, -1, -1, -1, -1, -1, -1, -1, -1, -1, -1, -1, -1, -1, -1, -1, -1, -1, -1, -1, -1, -1, -1, -1, -1, -1, -1, -1, -1, -1, -1, -1, -1, -1, -1, -1, -1, -1, -1, -1, -1, -1, -1, -1, -1, -1, -1, -1, -1, -1, -1, -1, -1, -1, -1, -1, -1, -1, -1, -1, -1, -1, -1, -1, -1, -1, -1, -1, -1, -1, -1, -1, -1, -1, -1, -1, -1, -1, -1, -1, -1, -1, -1, -1, -1, -1, -1, -1, -1, -1, -1, -1, -1, -1, -1, -1, -1, -1, -1, -1, -1, -1, -1, -1, -1, -1, -1, -1, -1, -1, -1, -1, -1, -1, -1, -1, -1, -1, -1, -1, -1, -1, -1, -1, -1, -1, -1, -1, -1, -1, -1, -1, -1, -1, -1, -1, -1, -1, -1, -1, -1, -1, -1, -1, -1, -1, -1, -1, -1, -1, -1, -1, -1, -1, -1, -1, -1, -1, -1, -1, -1, -1, -1, -1, -1, -1, -1, -1, -1, -1, -1, -1, -1, -1, -1, -1, -1, -1, -1, -1, -1, -1, -1, -1, -1, -1, -1, -1, -1, -1, -1, -1, -1, -1, -1, -1, -1, -1, -1, -1, -1, -1, -1, -1, -1, -1, -1, -1, -1, -1, -1, -1, -1, -1, -1, -1, -1, -1, -1, -1, -1, -1, -1, -1, -1, -1, -1, -1, -1, -1, -1, -1, -1, -1, -1, -1, -1, -1, -1, -1, -1, -1, -1, -1, -1, -1, -1, -1, -1, -1, -1, -1, -1, -1, -1, -1, -1, -1, -1, -1, -1, -1, -1, -1, -1, -1, -1, -1, -1, -1, -1, -1, -1, -1, -1, -1, -1, -1, -1, -1, -1, -1, -1, -1, -1, -1, -1, -1, -1, -1, -1, -1, -1, -1, -1, -1, -1, -1, -1, -1, -1, -1, -1, -1, -1, -1, -1, -1, -1, -1, -1, -1, -1, -1, -1, -1, -1, -1, -1, -1, -1, -1, -1, -1, -1, -1, -1, -1, -1, -1, -1, -1, -1, -1, -1, -1, -1, -1, -1, -1, -1, -1, -1, -1, -1, -1, -1, -1, -1, -1, -1, -1, -1, -1, -1, -1, -1, -1, -1, -1, -1, -1, -1, -1, -1, -1, -1, -1, -1, -1, -1, -1, -1, -1, -1, -1, -1, -1, -1, -1, -1, -1, -1, -1, -1, -1, -1, -1, -1, -1, -1, -1, -1, -1, -1, -1, -1, -1, -1, -1, -1, -1, -1, -1, -1, -1, -1, -1, -1, -1, -1, -1, -1, -1, -1, -1, -1, -1, -1, -1, -1, -1, -1, -1, -1, -1, -1, -1, -1, -1, -1, -1, -1, -1, -1, -1, -1, -1, -1, -1, -1, -1, -1, -1, -1, -1, -1, -1, -1, -1, -1, -1, -1, -1, -1, -1, -1, -1, -1, -1, -1, -1, -1, -1, -1, -1, -1, -1, -1, -1, -1, -1, -1, -1, -1, -1, -1, -1, -1, -1, -1, -1, -1, -1, -1, -1, -1, -1, -1, -1, -1, -1, -1, -1, -1, -1, -1, -1, -1, -1, -1, -1, -1, -1, -1, -1, -1, -1, -1, -1, -1, -1, -1, -1, -1, -1, -1, -1, -1, -1, -1, -1, -1, -1, -1, -1, -1, -1, -1, -1, -1, -1, -1, -1, -1, -1, -1, -1, -1, -1, -1, -1, -1, -1, -1, -1, -1, -1, -1, -1, -1, -1, -1, -1, -1, -1, -1, -1, -1, -1, -1, -1, -1, -1, -1, -1, -1, -1, -1, -1, -1, -1, -1, -1, -1, -1, -1, -1, -1, -1, -1, -1, -1, -1, -1, -1, -1, -1, -1, -1, -1, -1, -1, -1, -1, -1, -1, -1, -1, -1, -1, -1, -1, -1, -1, -1, -1, -1, -1, -1, -1, -1, -1, -1, -1, -1, -1, -1, -1, -1, -1, -1, -1, -1, -1, -1, -1, -1, -1, -1, -1, -1, -1, -1, -1, -1, -1, -1, -1, -1, -1, -1, -1, -1, -1, -1, -1, -1, -1, -1, -1, -1, -1, -1, -1, -1, -1, -1, -1, -1, -1, -1, -1, -1, -1, -1, -1, -1, -1, -1, -1, -1, -1, -1, -1, -1, -1, -1, -1, -1, -1, -1, -1, -1, -1, -1, -1, -1, -1, -1, -1, -1, -1, -1, -1, -1, -1, -1, -1, -1, -1, -1, -1, -1, -1, -1, -1, -1, -1, -1, -1, -1, -1, -1, -1, -1, -1, -1, -1, -1, -1, -1, -1, -1, -1, -1, -1, -1, -1, -1, -1, -1, -1, -1, -1, -1, -1, -1, -1, -1, -1, -1, -1, -1, -1, -1, -1, -1, -1, -1, -1, -1, -1, -1, -1, -1, -1, -1, -1, -1, -1, -1, -1, -1, -1, -1, -1, -1, -1, -1, -1, -1, -1, -1, -1, -1, -1, -1, -1, -1, -1, -1, -1, -1, -1, -1, -1, -1, -1, -1, -1, -1, -1, -1 ]);
X = 7;
s1 = [ 1, 1, 2, 2, 2, 3, 3 ];
p1 = [ 1, 2, 1, 4, 5, 1, 4 ];
s2 = [ 5, 6, 4, 5, 6, 4, 5 ];
p2 = [ 2, 1, 3, 3, 2, 5, 5 ];
